Ba27 Y10 Zr17 H1 O81
1.0
  12.5760000000000005    0.0000000000000000    0.0000000000000000
   0.0000000000000000   12.5760000000000005    0.0000000000000000
   0.0000000000000000    0.0000000000000000   12.5760000000000005
Ba Zr O Y H
27 17 81 10 1
direct
  -0.0018445872035678   -0.0003411938008884    0.0021439223512884 Ba
   0.3362811547896308   -0.0011194596018164    0.0015641524463075 Ba
   0.6650451001741070   -0.0016019127628390   -0.0003429311748117 Ba
  -0.0125702229270788    0.3394574875807458   -0.0044164251612986 Ba
   0.3468943141546757    0.3396774826921025   -0.0049965121934383 Ba
   0.6667111992100250    0.3339650772377658    0.0014318699855186 Ba
  -0.0009323223334188    0.6664100367792473   -0.0004541217641049 Ba
   0.3345083401918019    0.6675475817472803    0.0046211264629857 Ba
   0.6660779691929856    0.6692098603336325   -0.0000342412814128 Ba
  -0.0004421513183046   -0.0043418711066890    0.3372073465662557 Ba
   0.3332088300516713   -0.0032740622098627    0.3359501462486992 Ba
   0.6670727553576166   -0.0001814020956635    0.3343138918112146 Ba
  -0.0040993284661428    0.3309959162773058    0.3349137116904501 Ba
   0.3396677207420936    0.3322075801644357    0.3357111802778658 Ba
   0.6650261036025884    0.3348233897922341    0.3360469694202268 Ba
  -0.0004472810583587    0.6670416432794780    0.3350612896059284 Ba
   0.3340171389919928    0.6643494785257689    0.3302783880524795 Ba
   0.6661873031477271    0.6648507563341260    0.3346015703021197 Ba
  -0.0004225444587004   -0.0021468023265225    0.6657466685914867 Ba
   0.3341736184265428    0.0021529077041652    0.6683181397032454 Ba
   0.6662459385228646   -0.0009647205019511    0.6688409996803982 Ba
  -0.0003361368395751    0.3344578693425681    0.6688279711776460 Ba
   0.3339639453600119    0.3297997453070902    0.6671407989566274 Ba
   0.6661900744072629    0.3343654140062763    0.6651306340053671 Ba
  -0.0035625854580931    0.6664850931634841    0.6661450490896161 Ba
   0.3325081770688663    0.6663199416310861    0.6657984356768817 Ba
   0.6706890043733132    0.6672095576731308    0.6668100370154384 Ba
   0.8328402497259432    0.1666047619478274    0.1678550272442050 Zr
   0.1678662007244058    0.4934497486552737    0.1602693586226263 Zr
   0.4996208942142373    0.5011327822499163    0.1681916057791605 Zr
   0.1673297409486512    0.8268144248736643    0.1688426335714162 Zr
   0.4990261361795617    0.8321250740545244    0.1668713489513055 Zr
   0.1678048616852866    0.1647387095075950    0.5049823015321460 Zr
   0.4991385184899884    0.1667429173083220    0.5019486717899765 Zr
   0.5004520746695229    0.4991650205573263    0.4999396688456892 Zr
   0.8325472496889116    0.5008612583787647    0.5012821072411997 Zr
   0.1660986374813671    0.8319734866195110    0.4998795044187900 Zr
   0.8338829791822602    0.8319296469318702    0.5016127199737829 Zr
   0.1672573751257069    0.1677950796032175    0.8321446253153545 Zr
   0.4998447214838845    0.1661465045670518    0.8326303323207578 Zr
   0.1656005256889125    0.5002692883714939    0.8327077326952756 Zr
   0.8330590852461844    0.5024429839483203    0.8320259010643023 Zr
   0.5005756862800665    0.8346597634831397    0.8347671326248740 Zr
   0.8325867038419877    0.8330291857074252    0.8329555944118973 Zr
   0.1680162818156880    0.1734361560019235   -0.0014698778039900 O
   0.5034619069471744    0.1671108443293028   -0.0062281947458021 O
   0.8261928713296064    0.1676216894546808    0.0057060209457864 O
   0.1669053546510344    0.5182385202201035   -0.0027182920188104 O
   0.5001829138081579    0.5034897804972341    0.0056986784033394 O
   0.8325988311337247    0.5034908216118493   -0.0064240254283641 O
   0.1682564211160158    0.8268450566493634    0.0068261236420648 O
   0.4992723110573384    0.8330725361364851    0.0005592453465133 O
   0.8325100596380359    0.8329391115317042   -0.0061088772700956 O
   0.1670611243058606   -0.0106266401638653    0.1673723418213365 O
   0.4973667942937421   -0.0070423925882556    0.1666946325630929 O
   0.8346418603438934    0.0048357272068497    0.1668907895702242 O
  -0.0044767910825487    0.1674127264007067    0.1638155432364208 O
   0.3325019407638916    0.1645376878776500    0.1637351845435979 O
   0.6713870499638716    0.1649904342678699    0.1758233313563677 O
   0.1677812466414743    0.3307987886088720    0.1122834348136783 O
   0.4999682509518961    0.3402176053172133    0.1685520690333886 O
   0.8303865150189556    0.3285720370929634    0.1671514976732338 O
   0.0080504610156473    0.4950339907313034    0.1675106007897040 O
   0.3329477786487904    0.4974392452240781    0.1667300852662174 O
   0.6602641635263780    0.5028535687622859    0.1688631411756799 O
   0.1684402501244847    0.6603153834152710    0.1755763384721673 O
   0.4974903969675726    0.6663958516603457    0.1675315430254100 O
   0.8348265641054859    0.6665971817151187    0.1671288850802605 O
   0.0068602315748299    0.8292095184340466    0.1682628082231665 O
   0.3328780748079035    0.8293906622903435    0.1677192901475112 O
   0.6597454408059277    0.8320708944290961    0.1664459892003313 O
   0.1721140881053299    0.1775713394244392    0.3463156348862698 O
   0.4945797242260423    0.1667661228483872    0.3411187694056537 O
   0.8384605902007676    0.1659646075501483    0.3294947395121320 O
   0.1690527919146604    0.4756303920494076    0.3221666927752383 O
   0.4996398415334603    0.5005384062095598    0.3342070873394586 O
   0.8322252142501333    0.5016516110128330    0.3404721316533930 O
   0.1673354268091750    0.8317269923746605    0.3343569803457373 O
   0.4979968532003766    0.8312675483790491    0.3288308930022888 O
   0.8346213636282773    0.8317768663028217    0.3407198237970493 O
   0.1674092357683937   -0.0016900180264277    0.4980782630394261 O
   0.4989766610683561    0.0047741755649959    0.5027658895752376 O
   0.8339250757074377   -0.0071713665310219    0.5024305295790910 O
   0.0068952905696641    0.1633869233066843    0.5008790675060878 O
   0.3334756597271084    0.1652586879111966    0.5057596704105113 O
   0.6598715024546136    0.1671608833205407    0.5015685935541042 O
   0.1675833722901487    0.3269476574008248    0.5117647009689895 O
   0.4995200198583631    0.3332705682916686    0.5017097419430482 O
   0.8321621113598189    0.3399027979421471    0.5022488139146064 O
  -0.0050384984267499    0.5019274023620713    0.5000526568480150 O
   0.3384274973710761    0.4996067641501910    0.4976626645085150 O
   0.6661952581541991    0.5006769989538697    0.5014570615818698 O
   0.1666281207564740    0.6698759138708045    0.4962692810153196 O
   0.5002499298263886    0.6605503409644363    0.5004692752053833 O
   0.8328150470788032    0.6663949271021442    0.5023689506014770 O
   0.0004482927438019    0.8312549916405676    0.5016650574359101 O
   0.3275406114874268    0.8324629935568273    0.5008620474978732 O
   0.6719883084753010    0.8313784368532052    0.5017922869425129 O
   0.1671655780205807    0.1609633202715359    0.6693293960144727 O
   0.4973690353166170    0.1664385267199014    0.6676177458235523 O
   0.8381459108544858    0.1671192704671236    0.6675524052786447 O
   0.1663387502647967    0.4986373942123505    0.6704549876141014 O
   0.4988516761879765    0.4998734875140782    0.6611153651267229 O
   0.8339354896807439    0.5021549116482679    0.6667931774876639 O
   0.1664786284580254    0.8357059260490907    0.6615425677364699 O
   0.5002161264721017    0.8344773435721853    0.6731956983779512 O
   0.8331221168839851    0.8314906889357039    0.6672770933635529 O
   0.1684471768350986    0.0064642010577492    0.8405020332647816 O
   0.4988467035615182    0.0003553055174493    0.8344723339330166 O
   0.8332369705121015   -0.0060834064191956    0.8324652644831780 O
   0.0072401772077565    0.1675041553538757    0.8380783827726105 O
   0.3333401667180521    0.1670783657333008    0.8350895642945453 O
   0.6601398396132192    0.1646538641272062    0.8275191910506349 O
   0.1671001821874047    0.3342253385623181    0.8341545403915780 O
   0.5006695418706475    0.3287605026275500    0.8315114683846530 O
   0.8319187185052640    0.3409386729927100    0.8320342404362825 O
  -0.0003645152805827    0.5009798408911978    0.8330753629249005 O
   0.3275928793979083    0.4991203903886061    0.8340808874464203 O
   0.6717800376434272    0.5034725195979531    0.8306434190790452 O
   0.1666321484708854    0.6616013146544512    0.8252587359583092 O
   0.4992407522400584    0.6733689570851055    0.8337057028974335 O
   0.8331991553087041    0.6675387495714498    0.8314501016345134 O
  -0.0051239963913531    0.8322439466739530    0.8328204901399332 O
   0.3387382083116861    0.8347969209797196    0.8348846777334522 O
   0.6662494217956113    0.8334755119413145    0.8334285056698056 O
   0.1646289139682361    0.1608048236462349    0.1788675531589940 Y
   0.5014340845456225    0.1663127336657107    0.1677915605923005 Y
   0.8334505651555648    0.4986476882111354    0.1675289310873001 Y
   0.8330501416313766    0.8348127645375487    0.1673445845182562 Y
   0.8331952174832251    0.1662542845689067    0.4992402883184287 Y
   0.1667003761800786    0.4976234207532934    0.4966110281087841 Y
   0.4998159926938541    0.8325576525144357    0.5010805882718664 Y
   0.8328175105289141    0.1668962303003172    0.8355000449671949 Y
   0.5001706737448384    0.5017357684417409    0.8327916380415052 Y
   0.1668694627656668    0.8330946397002487    0.8341925381327618 Y
   0.1680658722262700    0.2498672958015701    0.0262432840843296 H
