Ba1 Zr1 H1 O3
1.0
   4.2123871499999996    0.0000000000000000   -0.0000000000000000
   0.0000000000000000    4.2123871499999996   -0.0000000000000000
  -0.0000000000000000    0.0000000000000000    4.2123871499999996
Ba Zr O H
1 1 3 1
direct
  -0.0306964399702438   -0.0272003022297168   -0.0306979140437109 Ba
   0.5087167226561278    0.4423257395815756    0.5087171009481674 Zr
   0.5379004360886598   -0.0506794585454842    0.5379038611564699 O
   0.5054747195715744    0.5162043521269698    0.0127090655370785 O
   0.0127064742997963    0.5162065375248266    0.5054760962032760 O
   0.3709202696237388    0.9131874929802606    0.3709139624963514 H
