Ba8 Zr8 H1 O24
1.0
   8.3840000000000003    0.0000000000000000    0.0000000000000000
   0.0000000000000000    8.3840000000000003    0.0000000000000000
   0.0000000000000000    0.0000000000000000    8.3840000000000003
Ba Zr O Ba Zr O Ba Zr O Ba Zr O Ba Zr O Ba Zr O Ba Zr O Ba Zr O H
1 1 3 1 1 3 1 1 3 1 1 3 1 1 3 1 1 3 1 1 3 1 1 3 1
direct
  -0.0171997241184284   -0.0102859897383384    0.0021085821560664 Ba
   0.2487265718411455    0.2503668499318013    0.2560020105489597 Zr
   0.2518938789003567    0.2713839893259538   -0.0046701113780287 O
   0.2491819955660828    0.0031513242663441    0.2071826925411275 O
   0.0009211093391581    0.2505047680997700    0.2403089758353909 O
  -0.0077001941349107   -0.0028491863923797    0.5000605798419544 Ba
   0.2486472113073541    0.2574217713129143    0.7322837879490544 Zr
   0.2448476094068386    0.1993483863026126    0.4955322239352315 O
   0.2481786637962124    0.0120048711605804    0.8012853078708274 O
   0.0011036679116755    0.2547131083208899    0.7527056508461409 O
  -0.0022623921387843    0.5003083183959485   -0.0012110528285835 Ba
   0.2491343924636874    0.7533838367283427    0.2491722675817447 Zr
   0.2490463208816328    0.7174699936900071   -0.0000185341655053 O
   0.2488443335845049    0.4995883403472404    0.2748072125392360 O
  -0.0001180589093916    0.7494017778458129    0.2519700414519220 O
  -0.0033575059296000    0.5039687833726609    0.4991411423138863 Ba
   0.2489987700463387    0.7594391410974194    0.7526853173106050 Zr
   0.2491459008583971    0.7829525704883259    0.5013879527235265 O
   0.2494147899158845    0.5056035727556488    0.7236013647583515 O
  -0.0001072650765689    0.7531454703482393    0.7500447938536263 O
   0.5138569956537933   -0.0097315186752162    0.0018219382291853 Ba
   0.7489188809957589    0.2497877351451002    0.2488510463719477 Zr
   0.7450998665969406    0.2487902383617847   -0.0012236421208158 O
   0.7485968551340322   -0.0011480002730557    0.2508772243770939 O
   0.4966944716110532    0.2512958641757004    0.2469193735531245 O
   0.5042011992209250   -0.0011338417041120    0.4997702766847848 Ba
   0.7487204225668170    0.2507996421908349    0.7488908764055090 Zr
   0.7518056535116100    0.2489223569333843    0.4987830673608453 O
   0.7491924075803458    0.0001116333269298    0.7502487049604472 O
   0.4964913200442906    0.2538426216943497    0.7466413515205544 O
   0.5004460625513699    0.5001911018841759   -0.0012684377961168 Ba
   0.7490324054927255    0.7473447023725336    0.2512983832769062 Zr
   0.7483653394468283    0.7447525437923597    0.0005955069170882 O
   0.7495489345800902    0.4988142833684974    0.2518537223111785 O
   0.4983082665684154    0.7494944941161323    0.2522287805859798 O
   0.5017565786060064    0.5051716196675915    0.4991349153748768 Ba
   0.7488451825913628    0.7489182771428113    0.7493935790708053 Zr
   0.7491582570219933    0.7506043741776447    0.5002781831407055 O
   0.7492170064434093    0.5003210406463245    0.7473994474747199 O
   0.4979873471730684    0.7541664582297893    0.7495354694255381 O
   0.2486966119536885    0.1522229627419229    0.9758701487492866 H
