Ba27 Y10 Zr17 H1 O81
1.0
  12.5760000000000005    0.0000000000000000    0.0000000000000000
   0.0000000000000000   12.5760000000000005    0.0000000000000000
   0.0000000000000000    0.0000000000000000   12.5760000000000005
Ba Zr O Ba Zr O Ba Y O Ba Y O Ba Zr O Ba Zr O Ba Zr O Ba Y O Ba Zr O Ba Y O Ba Zr O Ba Zr O Ba Zr O Ba Y O Ba Zr O Ba Zr O Ba Zr O Ba Y O Ba Zr O Ba Y O Ba Zr O Ba Y O Ba Zr O Ba Y O Ba Y O Ba Zr O Ba Zr O H
1 1 3 1 1 3 1 1 3 1 1 3 1 1 3 1 1 3 1 1 3 1 1 3 1 1 3 1 1 3 1 1 3 1 1 3 1 1 3 1 1 3 1 1 3 1 1 3 1 1 3 1 1 3 1 1 3 1 1 3 1 1 3 1 1 3 1 1 3 1 1 3 1 1 3 1 1 3 1 1 3 1
direct
   0.0028500681627739   -0.0060591443498973    0.0010822406689120 Ba
   0.1669481842982359    0.1661446202159561    0.1785811056038638 Zr
   0.1663099925320995    0.1739787811090771    0.0079006268758457 O
   0.1876292474710202    0.0001991788360634    0.1669431723478922 O
   0.0036467201367389    0.1613345620794574    0.1769275598885441 O
   0.0067096890481820   -0.0036134440774120    0.3383872947791420 Ba
   0.1697884735081098    0.1673390272493586    0.4990129633818073 Zr
   0.2099862288335138    0.1690457953367933    0.3336752691492113 O
   0.1755873229815753    0.0071546133735051    0.4801044692383769 O
   0.0092458171755765    0.1694373129295248    0.4647966803239979 O
  -0.0097324041392994    0.0020554027645759    0.6719920595403749 Ba
   0.1660617786093370    0.1626741580030337    0.8299074209566607 Y
   0.1355414286463396    0.1614533050304594    0.6591718529846319 O
   0.1725591394919296   -0.0076163120015249    0.8694561998067729 O
  -0.0045074628098836    0.1441189326779465    0.8519789330640873 O
   0.0015731348080308    0.3279539569582267   -0.0043264122063312 Ba
   0.1615202738498477    0.5066608628151380    0.1661220402580687 Y
   0.1785429216188316    0.5227481802387250   -0.0095730892364666 O
   0.1802701556498143    0.3290498874650282    0.1765284370591644 O
  -0.0028968357949972    0.4752603531297399    0.1287743806423806 O
   0.0071078736451533    0.3397743543277199    0.3320804859868934 Ba
   0.1640215917794428    0.5027609825391838    0.5067097975672917 Zr
   0.1574016343812818    0.5133091325888582    0.3437147461962831 O
   0.1697303389917513    0.3341101650442322    0.4925444395178631 O
  -0.0003308710795405    0.4964341026546190    0.5302178771229494 O
   0.0009981114097743    0.3316699893792952    0.6643775503039565 Ba
   0.1664790477047034    0.5040376126507851    0.8300151155354568 Zr
   0.1754769949574821    0.4757592922038367    0.6694592871998204 O
   0.1689463474768133    0.3389765836439298    0.8449038500913999 O
   0.0040444820947429    0.5162171022309460    0.8310974581555957 O
  -0.0022647727882823    0.6579803464764554   -0.0029279718634634 Ba
   0.1643335173808029    0.8304164410578122    0.1672498128277062 Zr
   0.1656817687654258    0.8116240512160103   -0.0016854933085608 O
   0.1205656615487335    0.6744895286511946    0.1728022624538969 O
   0.0071693625410260    0.8669071975802423    0.1755870609046758 O
  -0.0013359199274879    0.6826188215419231    0.3430096807497574 Ba
   0.1671627408298650    0.8364836445813176    0.5110300702846515 Y
   0.1728996630524404    0.8247270212583420    0.3336617730307613 O
   0.1577658710973156    0.6638111604610771    0.5315307399488851 O
  -0.0070744367140286    0.8368650249469726    0.5162913716526645 O
  -0.0121020624647460    0.6657483995743134    0.6696061666631705 Ba
   0.1675922994431226    0.8336105137124488    0.8307571815050697 Zr
   0.1681848996417656    0.8843554032472429    0.6769142214284275 O
   0.1660123841720262    0.6706805006503511    0.7996012815087516 O
  -0.0012815045206000    0.8328069952701244    0.8168383452108612 O
   0.3393826982833528   -0.0167849543851815   -0.0075499265797195 Ba
   0.4852091055869986    0.1669577759552645    0.1646237494538892 Y
   0.5184111533823249    0.1673989758216543   -0.0055521546574357 O
   0.4697733630832733   -0.0074500249657256    0.1687180577367724 O
   0.3198584926908256    0.1686251351007857    0.0996188738430010 O
   0.3315374400060774   -0.0137256783640700    0.3363051025745490 Ba
   0.4922667936413092    0.1660214463589054    0.4977784830430163 Zr
   0.4581358926310857    0.1618606095648406    0.3365817457979744 O
   0.4893427441208659   -0.0004004012293277    0.4961680331073555 O
   0.3309244182043095    0.1696380147504903    0.5389592098559547 O
   0.3427210756137967   -0.0027766112911597    0.6714243555557097 Ba
   0.5013528049323699    0.1688838464538399    0.8325877060429944 Zr
   0.5153620683106728    0.1728286233102493    0.6650295361853760 O
   0.5089035412904137    0.0058741012907167    0.8334586207570421 O
   0.3382523231903457    0.1526576838225240    0.8208511339664700 O
   0.3296859806999911    0.3586441320285244    0.0000115480792919 Ba
   0.4972035726600544    0.5059929871332398    0.1693914768261115 Zr
   0.5081010616336741    0.5043874897217564    0.0002561252610690 O
   0.4734713439761991    0.3418492617949166    0.1699326415772813 O
   0.3347497191637042    0.5330976501261606    0.1584474484572353 O
   0.3314831187541653    0.3485791189686216    0.3383301360635040 Ba
   0.5037934402226318    0.5005160347400954    0.4974237983174905 Y
   0.4716564584552568    0.5172624870059296    0.3292412965417674 O
   0.4953162896288051    0.3274388082414544    0.4851366052818874 O
   0.3277436562047562    0.5095110242963420    0.5066713897541451 O
   0.3361722191989311    0.3353960894259695    0.6719765480443363 Ba
   0.5068568076154703    0.4931293347808315    0.8317132780434997 Zr
   0.5098459759114748    0.4783919109637492    0.6693774171767665 O
   0.4683758360547154    0.3308540774085121    0.8441044996342137 O
   0.3382050626440667    0.5158637079597117    0.8296737911726084 O
   0.3374975012512613    0.6677604382542603   -0.0082190961847176 Ba
   0.4957047257001925    0.8306115027234301    0.1665217221264870 Zr
   0.4815647772856406    0.8253404194622467    0.0047954001752940 O
   0.5278202584855355    0.6689050445226487    0.1646728331622455 O
   0.3284891768666450    0.8024056700749947    0.1679539748514667 O
   0.3262386272749442    0.6664165335102078    0.3405372579722904 Ba
   0.5027728775609316    0.8327886506719800    0.5032969900064174 Zr
   0.4893242745716442    0.8242193272833735    0.3350311636327922 O
   0.5127237588315000    0.6716445654502047    0.5194089048679360 O
   0.3408603248814905    0.8220952312840608    0.5184569009047469 O
   0.3400063025717848    0.6606671924005968    0.6661413920454163 Ba
   0.5096013573573392    0.8295503080318916    0.8332697963070573 Y
   0.5299443994676144    0.8477008361613751    0.6628237086931987 O
   0.5302004343347774    0.6545517426658302    0.8213006426780438 O
   0.3329995569409343    0.8233852938209351    0.8215978020591059 O
   0.6626606159618497    0.0106531072090872   -0.0000927151895249 Ba
   0.8299376152170436    0.1623297611527572    0.1694292233552139 Zr
   0.8244812347233197    0.1959110145508940    0.0036771338869488 O
   0.8308235355100296    0.0090050203114533    0.1181354166441506 O
   0.6619495257271998    0.1636118786409145    0.1813978623034251 O
   0.6555452274003772   -0.0018713694899720    0.3302530386204627 Ba
   0.8347061991594124    0.1636513559393774    0.4891760292595665 Y
   0.8301000548267009    0.1075421946681783    0.3236029649383911 O
   0.8318556223415216   -0.0028458851566483    0.5297815465667726 O
   0.6566755800172969    0.1616652373500384    0.4825852424405381 O
   0.6699173496930624    0.0084137081749395    0.6685175205232140 Ba
   0.8356514207272185    0.1704882763181724    0.8359488232558727 Zr
   0.8403863225088715    0.1758663738175544    0.6687626737177154 O
   0.8248888762511689    0.0019788012535978    0.8364380676300117 O
   0.6700901075680511    0.1844906193877563    0.8283527845865379 O
   0.6582842935516779    0.3330035992323843    0.0097394727083245 Ba
   0.8310067511291219    0.4941219989866151    0.1750229257463953 Y
   0.8023006042158162    0.4933112809358255    0.0032996443916908 O
   0.8325190435621755    0.3186786821253186    0.2106838938350311 O
   0.6564537909792203    0.4818088986126422    0.1956605294346024 O
   0.6564596888616829    0.3244095391093322    0.3336141979921257 Ba
   0.8354424358735867    0.4993763821599256    0.4927526026976518 Zr
   0.8874233870657016    0.5140214985669578    0.3391940267337394 O
   0.8321608795067372    0.3364504845027816    0.4777009049318448 O
   0.6751907573997358    0.5023425075982927    0.4598903226413040 O
   0.6724308996405423    0.3272285884130562    0.6558877526437978 Ba
   0.8271905963057713    0.4935560140752086    0.8323012754720496 Y
   0.8090737855515533    0.4942017516926698    0.6552170797667873 O
   0.8735117244274523    0.3274651800577945    0.8266412256342571 O
   0.6604109883421527    0.4438874122962693    0.8308289742176341 O
   0.6742469134295977    0.6685241802128664    0.0043362476535681 Ba
   0.8338469654702808    0.8413705571545657    0.1655562303152456 Y
   0.8639266264408173    0.8146517117519175   -0.0044845212300731 O
   0.8203616469258065    0.6688710127628228    0.1778136746239097 O
   0.6571296371629887    0.8571981674845995    0.1644619151494698 O
   0.6688941255437462    0.6728723713891822    0.3305081901039699 Ba
   0.8302059801141261    0.8381618691496446    0.5035117433791523 Zr
   0.8405091144315686    0.8515572912587747    0.3411772605686291 O
   0.8322832710627383    0.6697555371418038    0.5011440830338012 O
   0.6661441554443399    0.8395568471577257    0.4799908092793107 O
   0.6706374511141875    0.6629713258416152    0.6600820284000187 Ba
   0.8311105934582991    0.8321346932864873    0.8378084455164839 Zr
   0.8072509513475452    0.8311908150693191    0.6716698183624105 O
   0.8151265358845163    0.6682656065167283    0.8258300928518975 O
   0.6750342886235151    0.8418931788712735    0.8767287157731549 O
   0.2504094834557361    0.1688784073801604    0.0322815023864557 H
