Ba27 Y10 Zr17 H2 O81
1.0
  12.5760000000000005    0.0000000000000000    0.0000000000000000
   0.0000000000000000   12.5760000000000005    0.0000000000000000
   0.0000000000000000    0.0000000000000000   12.5760000000000005
Ba H O Y Zr H
27 1 81 10 17 1
direct
  -0.0260639297398968   -0.0041810468928474    0.0039894497536260 Ba
   0.0005225241702864   -0.0010655772529975    0.3313525037713411 Ba
   0.0017344597402544    0.0000607877350021    0.6640673090127002 Ba
   0.0019917119217067    0.3346368349467352   -0.0017059701519795 Ba
   0.0004857033910946    0.3355162025788955    0.3357115067926710 Ba
   0.0010713948810709    0.3361156689100289    0.6629033014912707 Ba
  -0.0024977778111442    0.6652528332685742    0.0001667121804884 Ba
   0.0006221848109862    0.6678637205813661    0.3332986958646183 Ba
   0.0016947047270020    0.6679793710225417    0.6669952264773233 Ba
   0.3579569296430146   -0.0000526222643416    0.0004358147369421 Ba
   0.3356052559907057    0.0004776836802979    0.3313902348099147 Ba
   0.3390761289548884    0.0014584705682806    0.6657554339980534 Ba
   0.3311046367977907    0.3310170794453427   -0.0015144838443470 Ba
   0.3313202958806363    0.3336866418995470    0.3353452815417347 Ba
   0.3314020069021214    0.3344634374391331    0.6649834367945947 Ba
   0.3336693152336704    0.6652145552001809    0.0009866797846894 Ba
   0.3330480136717717    0.6681519526073691    0.3341781035908742 Ba
   0.3313571436647373    0.6677075848655164    0.6664189001826173 Ba
   0.6611985216651138   -0.0017532714457655    0.0034590657395551 Ba
   0.6637120162082227   -0.0011968704414556    0.3331527309474586 Ba
   0.6634498199683780    0.0000513743764221    0.6668154191242086 Ba
   0.6653107390140502    0.3353590879090079   -0.0003061196839291 Ba
   0.6687998741157289    0.3351869998102465    0.3381816025521985 Ba
   0.6684242031612198    0.3356818801431769    0.6610952604160329 Ba
   0.6660828584994293    0.6657462558432679    0.0003262032737711 Ba
   0.6660352681058093    0.6664436837654226    0.3350886867760919 Ba
   0.6663247584950316    0.6657501604983169    0.6650370581096280 Ba
   0.1678851231760974   -0.0278772520931787   -0.0068912396244780 H
   0.1782253132962353    0.1690512908798946    0.0002364624711477 O
   0.1716886207722199    0.0027585856450988    0.1875463951001275 O
   0.0098690077212978    0.1598593427971902    0.1592002268015569 O
   0.1684515148810947    0.1737884721789440    0.3356610116609907 O
   0.1723425309586553    0.0101091746292544    0.4988267097640192 O
   0.0023970898607306    0.1678984310327345    0.4977239907066602 O
   0.1669917713690406    0.1846259502306943    0.6606123443270793 O
   0.1780708324520803    0.0118765581886639    0.7933609410324991 O
   0.0097833917976390    0.1540053999718277    0.8450035733731189 O
   0.1709521208577313    0.4998257553245852    0.0016009839812754 O
   0.1690527046778811    0.3308267298707436    0.1657065088216584 O
   0.0100157018095679    0.5026267628004902    0.1669102336745631 O
   0.1669957802020487    0.4937247482899592    0.3343548887846093 O
   0.1695939182850131    0.3345037486088094    0.4960826463336198 O
   0.0023672708821283    0.4996705547661380    0.4984486356798709 O
   0.1675579053830037    0.4941294102504058    0.6640977460902788 O
   0.1670106250171642    0.3312439457361246    0.8361790039191143 O
   0.0105336455386682    0.5028592988100939    0.8349866699078795 O
   0.1658694747279465    0.7844323411888088    0.0104013178400854 O
   0.1712822725263602    0.6668897116846273    0.1849998762783089 O
   0.0006111395406675    0.8398464985468250    0.1659974928993805 O
   0.1738738336432304    0.8354732511909861    0.3238806271680650 O
   0.1713748607087340    0.6601777601125598    0.4955820973141194 O
   0.0014447439943162    0.8394926455412660    0.4911239695877664 O
   0.1728821585813575    0.8259698349760999    0.6688115613442375 O
   0.1725178993122202    0.6626314658190864    0.8234371060793587 O
  -0.0000111682793488    0.8561398709127523    0.8407899258805640 O
   0.5041489618000067    0.1667901500216605    0.0007178463695869 O
   0.5013864701363060    0.0001067446430791    0.1699326128338884 O
   0.3332415380576954    0.1633192851804827    0.1663652585285452 O
   0.4937997556122050    0.1656021769551576    0.3354808005737506 O
   0.5008161632420586    0.0025038615975433    0.4974518596676265 O
   0.3342397418264434    0.1687330831089250    0.4988649775708562 O
   0.4940717182136646    0.1645167237113768    0.6636081110170622 O
   0.5070568346229810    0.0021347210874826    0.8326494253558077 O
   0.3335156189761646    0.1654533560946042    0.8355150064213613 O
   0.4966686890931772    0.4955966607890810    0.0004290911061346 O
   0.4894642202881010    0.3251315122525507    0.1723694791650627 O
   0.3251226427269183    0.4969873647276007    0.1720617795603827 O
   0.4940045990878443    0.4992767790676318    0.3418276629060816 O
   0.4979909836970938    0.3322499553658172    0.4994264348136236 O
   0.3321663917107541    0.4983044800700788    0.4990577551349142 O
   0.4951224882587464    0.4995900580661737    0.6575829914064020 O
   0.4855022635815328    0.3260678093438242    0.8279264895556853 O
   0.3253713623806377    0.4938988546968735    0.8304233463960623 O
   0.5053365296368523    0.8347488491967988    0.0020485260095819 O
   0.4932512605166892    0.6730900834184701    0.1711210446551055 O
   0.3342951095321731    0.8400810402041654    0.1604021034852447 O
   0.4956811720547418    0.8352695029557967    0.3331581041421121 O
   0.4957715980296067    0.6675325136129855    0.4989802188789554 O
   0.3414429770783416    0.8401413915237704    0.4951877611446595 O
   0.4945146569673339    0.8360489554929794    0.6647917835392017 O
   0.4879154290869842    0.6724704292725887    0.8321486690859221 O
   0.3411665902313715    0.8457056047949801    0.8445162952542995 O
   0.8183110285596569    0.1787084312662057    0.0007039176475656 O
   0.8220673735856658   -0.0063482966926878    0.1675144692013959 O
   0.6579781635185050    0.1720917117630847    0.1812451980792467 O
   0.8384487415567753    0.1663662199277174    0.3405866619332298 O
   0.8255437927163189    0.0082138094033220    0.4895744554199576 O
   0.6637003442259527    0.1700868320842439    0.4994769236051287 O
   0.8391765497349226    0.1576405766416850    0.6583624464866187 O
   0.7983463164854950    0.0024372862195578    0.8452068293435254 O
   0.6575736194573343    0.1872502399757127    0.8190337128355987 O
   0.8276546936337354    0.4952512595306331    0.0001083275173446 O
   0.8484167133951265    0.3325680696145709    0.1801025595303826 O
   0.6651631800699124    0.4939282327324255    0.1765229716956429 O
   0.8356510977784223    0.5024281908206228    0.3417905654724731 O
   0.8332101177056884    0.3332743471355777    0.4996349946908837 O
   0.6641499326439123    0.4999618340400565    0.4979306259763001 O
   0.8336272792996292    0.4983910237091905    0.6564707768785109 O
   0.8567215183757759    0.3314341746364928    0.8198062824864304 O
   0.6650971450994976    0.4907046955596691    0.8257898765204708 O
   0.8244437080279858    0.8270558244599822    0.0090218830751049 O
   0.8361414739737247    0.6730586513632998    0.1731669981570358 O
   0.6619143243943120    0.8294200873286246    0.1725094079292662 O
   0.8303383073444472    0.8341924427728308    0.3268997680248487 O
   0.8328214924271666    0.6619585060942587    0.5008599799695403 O
   0.6573999340380638    0.8311809725429711    0.4982109662874638 O
   0.8354140056487892    0.8504806146433561    0.6652903634966673 O
   0.8416247214488960    0.6677775914710705    0.8239418690416750 O
   0.6559362868304253    0.8187829174643207    0.8262561211996527 O
   0.1700210579428396    0.8345719408061903    0.4989888171127919 Y
   0.1684911604000299    0.8400582876275355    0.8416379679772532 Y
   0.4968099580604627    0.4989758718240648    0.1694933335496317 Y
   0.4968189657304707    0.4994926185826000    0.8305873499243200 Y
   0.8321004893646534    0.1661907359800727    0.1690746999487490 Y
   0.8323343748703247    0.1666200807296213    0.8310398426632634 Y
   0.8355334851947356    0.5006211261290120    0.1687272421496392 Y
   0.8360134170734483    0.4988733850437387    0.8302774624802141 Y
   0.8315199882194725    0.8351854720526302    0.4982096285480726 Y
   0.8294779036999618    0.8355360180458833    0.8344739177067524 Y
   0.1675731611385533    0.1662918547700895    0.1738302363486523 Zr
   0.1665506368845841    0.1688999496161065    0.4990161349802209 Zr
   0.1666247388561388    0.1669914896212628    0.8226184918637031 Zr
   0.1668903052984926    0.5013363549309485    0.1668994740021558 Zr
   0.1663706191291674    0.5009828013650109    0.4995733808579900 Zr
   0.1673393947605994    0.5016503274921497    0.8334152634508492 Zr
   0.1664755397311182    0.8347489949558061    0.1621814640685093 Zr
   0.5001403125570741    0.1673516612541605    0.1683958123385474 Zr
   0.5001920383405775    0.1675515418576774    0.4998937186933243 Zr
   0.5008503709742215    0.1684629992190236    0.8315330753589971 Zr
   0.4988549707892976    0.5008077886467484    0.4999825628559322 Zr
   0.4993226663575383    0.8319794289618766    0.1675808354773915 Zr
   0.4996228206488899    0.8339227761450085    0.4999248477590918 Zr
   0.4994675867451951    0.8327649747535498    0.8326109362666835 Zr
   0.8333666697339966    0.1673488563373076    0.5000559531747698 Zr
   0.8337091816531543    0.5010710676657211    0.4995506493302730 Zr
   0.8309820832405072    0.8317349167765015    0.1681279429553034 Zr
   0.1650665873397221    0.0912394271390203    0.9981400189261430 H
