Ba27 Y10 Zr17 H2 O81
1.0
  12.5760000000000005    0.0000000000000000    0.0000000000000000
   0.0000000000000000   12.5760000000000005    0.0000000000000000
   0.0000000000000000    0.0000000000000000   12.5760000000000005
Ba H O Y Zr H
27 1 81 10 17 1
direct
  -0.0313760526763650   -0.0078053769292899    0.0091099690480251 Ba
  -0.0091620259356409    0.0042716417577008    0.3278823057950901 Ba
  -0.0111868558271364    0.0198131769218020    0.6665149434915435 Ba
   0.0136749821541904    0.3368271570831362    0.0025958702381929 Ba
  -0.0076499854158026    0.3404966323305489    0.3246670837170262 Ba
   0.0036045722352257    0.3317331809988622    0.6651805757016274 Ba
   0.0114243429594469    0.6720792556092228    0.0053583365754215 Ba
   0.0009706570938216    0.6632989458402853    0.3367830099986268 Ba
  -0.0033234082630868    0.6446293687535943    0.6680015727740690 Ba
   0.3574734778327348   -0.0008911626407931    0.0061922575868483 Ba
   0.3369152185140470   -0.0048410017110521    0.3354171935387509 Ba
   0.3438812228764324    0.0015705123998907    0.6604150912599726 Ba
   0.3333838760206772    0.3282277138730103    0.0060799743462711 Ba
   0.3299972114910610    0.3320251115685492    0.3341085872879103 Ba
   0.3316568115604161    0.3366304865307505    0.6615313000060794 Ba
   0.3342178482225040    0.6765980294035956   -0.0055639449461434 Ba
   0.3369665768799164    0.6659377884447280    0.3380897134507324 Ba
   0.3368147210287519    0.6670388369262349    0.6621467716127393 Ba
   0.6666489767499444   -0.0148530496715558   -0.0024036803158400 Ba
   0.6699262711263881    0.0042203434148825    0.3375958053542623 Ba
   0.6636712848658148    0.0075984584772488    0.6674471113932794 Ba
   0.6661839805941353    0.3269132140233708    0.0046570813135568 Ba
   0.6695172144372500    0.3394015164769753    0.3303337259940767 Ba
   0.6634646410881304    0.3374948321680019    0.6625912965532186 Ba
   0.6624466043266709    0.6701802119455299   -0.0095992859677677 Ba
   0.6735654962584943    0.6658034505365088    0.3388690421340763 Ba
   0.6582033172392121    0.6567382463753562    0.6674178136705763 Ba
   0.1677928970316665   -0.0870645938178002   -0.0035397406940747 H
   0.1827734043229955    0.1659353216381374   -0.0003146312533114 O
   0.1617018233856926   -0.0018033373565905    0.1762526847543115 O
   0.0073339748698205    0.1614406739767444    0.1459672253810984 O
   0.1572630028732928    0.1904693605319793    0.3289672616407587 O
   0.1638198251635591    0.0097907373557746    0.4543233651916977 O
   0.0030421548676541    0.1739118091735390    0.5061769995327078 O
   0.1735762729395155    0.1602289925940905    0.6628747556665157 O
   0.1582488566839465    0.0089576677988453    0.9081122531197799 O
   0.0118426990657304    0.1683595723962047    0.8341594684396525 O
   0.1926401356887870    0.5035898268040330   -0.0019413634574039 O
   0.1734992841568999    0.3318577407322398    0.1587368539415330 O
   0.0124795751538786    0.5026766380199631    0.1548339085401904 O
   0.1528380349234215    0.5052860015994052    0.3361999897896875 O
   0.1806906272549509    0.3325574879004138    0.5001635016200752 O
   0.0003397072965253    0.4885929381084785    0.4955296121350065 O
   0.1513885235887334    0.4797898925897146    0.6638731413949135 O
   0.1854012594849314    0.3304580309526644    0.8362353428021586 O
   0.0118575954148315    0.4965266899791340    0.8439760684314050 O
   0.1834893176192056    0.8359077819479814    0.0087088527626016 O
   0.1801293407592514    0.6692849805395162    0.1579011297721188 O
   0.0023976032865901    0.8335632081777561    0.1725098131142131 O
   0.1894097249437083    0.8055533139029931    0.3339171177228872 O
   0.1629349352537441    0.6632814043931798    0.5280948567179820 O
  -0.0024452522216384    0.8381092441526902    0.4403291356410320 O
   0.1633289542182036    0.9095256386622448    0.6650530648245393 O
   0.1730176124837257    0.6676708797013763    0.8165664306435864 O
   0.0037870232568742    0.8349863601946442    0.8777409296857361 O
   0.5029728120619604    0.1625806021889139    0.0012263963420539 O
   0.5192684996306942   -0.0011143287444810    0.1680684505560928 O
   0.3321860183919489    0.1500260488012473    0.1698706730030976 O
   0.4896847284027338    0.1603874449600640    0.3352950049145539 O
   0.5081850554109368    0.0022270858837172    0.5024413822730649 O
   0.3318131933783057    0.1570948168013014    0.4963953441252330 O
   0.4916418704564783    0.1708696142857321    0.6636083203974017 O
   0.5197914026760104    0.0032415777911300    0.8312666641964949 O
   0.3307454211726009    0.1346638276276450    0.8316930664780451 O
   0.4400429660316557    0.5018043561757206   -0.0003195347873261 O
   0.4827127664229957    0.3260530312055947    0.1676187325612114 O
   0.3259926419762884    0.4938857525701852    0.2100367718841275 O
   0.5247184231440533    0.5027210113577547    0.3376152195157272 O
   0.4870896477348503    0.3322451428871994    0.4921357046544321 O
   0.3327013495520748    0.5055554857169161    0.4938557410697463 O
   0.5070382927575725    0.4919367384383760    0.6579658996160678 O
   0.4581506345051826    0.3233098626182764    0.8357694436088998 O
   0.3250715661124492    0.5065790454271142    0.7875151936252089 O
   0.5001090217963970    0.8363753300000352    0.0006445559480813 O
   0.4712800482904466    0.6749809278414061    0.1688579276695000 O
   0.3357682147654878    0.8562523850036926    0.1707707584090461 O
   0.5114914358667954    0.8364235039446654    0.3382919762729417 O
   0.4982651455686745    0.6669856478303855    0.5005931437084387 O
   0.3392384207280653    0.8406930955519285    0.5003400999632308 O
   0.4797278202186667    0.8350203447761967    0.6677292030190661 O
   0.4882727808296776    0.6728507553100894    0.8331622424026091 O
   0.3362165559909089    0.8579113795852026    0.8379903456173419 O
   0.8050604573274242    0.1259204078446295   -0.0018056508941735 O
   0.8224798933155902   -0.0092577869247741    0.1774721499576051 O
   0.6587442355648125    0.1848405475374927    0.1856255222048636 O
   0.8452444359425846    0.1625755730135757    0.3381046691564101 O
   0.8259554191943503    0.0101741521438506    0.5172003713240008 O
   0.6627349752183543    0.1766304470956840    0.4966920925088710 O
   0.8346235160725805    0.2002955450871070    0.6613571280058735 O
   0.8215448529529662    0.0007914098088447    0.8013957855305581 O
   0.6549002983318516    0.1971452507529652    0.8209216914821929 O
   0.8413206471000675    0.5765605746230454   -0.0062239193078871 O
   0.8450589383052738    0.3368092249121813    0.1478256552528081 O
   0.6616393730196192    0.5028188710357443    0.1302109620593008 O
   0.8233070148529206    0.4937868621360488    0.3342702469243233 O
   0.8313288132170351    0.3323053293528880    0.4773008456418694 O
   0.6668793894351415    0.4956500836869185    0.5080037729110404 O
   0.8388186006501622    0.4613806771891550    0.6623915241174793 O
   0.8459647275946488    0.3344253005404973    0.8962745150943690 O
   0.6607803410663613    0.4817134479302403    0.8499018435740778 O
   0.8195460143727428    0.8312169247880358    0.0068494830734918 O
   0.8442201089115712    0.6743887030824816    0.2039944409943781 O
   0.6605814188583978    0.8074906705462910    0.1610611348945926 O
   0.7932355286570890    0.8426831824210220    0.3374645769320949 O
   0.8356991184401668    0.6564239611391063    0.5068872758517299 O
   0.6630035255712807    0.8303886402943566    0.5388985544544644 O
   0.9243796098989261    0.8321337264030333    0.6621871874203833 O
   0.8241941737473033    0.6620384110570130    0.7766864001959335 O
   0.6608003601746958    0.8249895797276054    0.8168490370886645 O
   0.1588255734611062    0.8403351185129515    0.5035807441006046 Y
   0.1631707636895399    0.8413472186782359    0.8204087213996968 Y
   0.4937163281247272    0.5016698583415393    0.1642648348561536 Y
   0.4906423255895268    0.4956094748836556    0.8346464064788316 Y
   0.8309196200202215    0.1671579987672233    0.1632904236692973 Y
   0.8302861095888023    0.1730890792928175    0.8348612298531686 Y
   0.8335045908340890    0.5086213561533494    0.1549258964505611 Y
   0.8339882970028774    0.4980503324033077    0.8383219986334542 Y
   0.8381863931715464    0.8328058994750777    0.5090249265387418 Y
   0.8392501462532598    0.8279414740445835    0.8227829183250044 Y
   0.1660152402247552    0.1639209526470583    0.1687821111657747 Zr
   0.1663703914640812    0.1661969324054887    0.4933490790818426 Zr
   0.1710900807482955    0.1689003930423222    0.8263910180834443 Zr
   0.1724070250251631    0.5018853756381622    0.1666489795963295 Zr
   0.1655312820614396    0.5006220324427891    0.5009330640111611 Zr
   0.1716373503351021    0.5022183376252507    0.8310070915656267 Zr
   0.1682935521351482    0.8327976710099452    0.1813427298098884 Zr
   0.5004428395209002    0.1662707138036554    0.1697388943667625 Zr
   0.4981654302445734    0.1680296791247003    0.4979799177026505 Zr
   0.4971380179067604    0.1679930064446098    0.8328668795688079 Zr
   0.5013128095183182    0.4993731755602104    0.4967564159406173 Zr
   0.5009636167021916    0.8317946635814467    0.1708168530929581 Zr
   0.5032780381019221    0.8339418060702752    0.5048684379517688 Zr
   0.4995292913505532    0.8349092185378684    0.8307649989769462 Zr
   0.8330897972721258    0.1716142921480977    0.5000157673045681 Zr
   0.8328562258272427    0.4947146083882905    0.4994426092058366 Zr
   0.8269339468617454    0.8291534392714824    0.1724969440541587 Zr
   0.1652693010474591    0.0736181508156292    0.9668113815623718 H
