Ba1 Zr1 H1 O3
1.0
   4.1920000000000002    0.0000000000000000    0.0000000000000000
   0.0000000000000000    4.1920000000000002    0.0000000000000000
   0.0000000000000000    0.0000000000000000    4.1920000000000002
Ba Zr O H
1 1 3 1
direct
  -0.0298628089790807   -0.0298626436436177   -0.0030463591609114 Ba
   0.5223547244752517    0.5223549349011477    0.4489948357227922 Zr
   0.5283787267247927    0.5283795590449188   -0.0447120375377859 O
   0.4990887257890559    0.0230466515248012    0.5090226824898487 O
   0.0230468386552703    0.4990881262489082    0.5090241471427329 O
   0.3615540808136352    0.3615536659653136    0.8898372700052281 H
