Ba27 Y10 Zr17 H1 O81
1.0
  12.5760000000000005    0.0000000000000000    0.0000000000000000
   0.0000000000000000   12.5760000000000005    0.0000000000000000
   0.0000000000000000    0.0000000000000000   12.5760000000000005
Ba Zr O Y H
27 17 81 10 1
direct
  -0.0184266895129240   -0.0040302619186677   -0.0001104516801146 Ba
   0.3455157678300426   -0.0038458292199215    0.0081203437280942 Ba
   0.6653880131880341   -0.0129110593564834    0.0075093537289661 Ba
  -0.0196489638957607    0.3403570687553271   -0.0081224090449006 Ba
   0.3644132352269804    0.3308508727144697    0.0028876571998600 Ba
   0.6673886222894295    0.3425299980502683   -0.0032933612290142 Ba
   0.0042543593866661    0.6685876740536103   -0.0112861047223160 Ba
   0.3256596751041977    0.6609803026561009   -0.0017285923759656 Ba
   0.6611808470651523    0.6628820077958776   -0.0048999829583351 Ba
  -0.0004948592781588   -0.0075712392206258    0.3267753006280154 Ba
   0.3326628848665509   -0.0004993918243283    0.3315633962600532 Ba
   0.6700808958543203   -0.0188883277903331    0.3334758820792419 Ba
   0.0019876316654729    0.3332308716790647    0.3404179038513779 Ba
   0.3298286930964774    0.3360025326446996    0.3304545929430249 Ba
   0.6662847236816135    0.3425484721146767    0.3373581518962248 Ba
   0.0059822321244432    0.6595708786465840    0.3436669941622080 Ba
   0.3298785057450129    0.6627459480349641    0.3294963892896854 Ba
   0.6686163769033432    0.6644745575472997    0.3425258712511617 Ba
  -0.0066561365876481    0.0040126402108440    0.6629957507974574 Ba
   0.3372267219204836    0.0007148219674210    0.6664339930279677 Ba
   0.6653093795468292    0.0068197100245708    0.6616174953441161 Ba
  -0.0085269780015282    0.3236944177837640    0.6664665283508073 Ba
   0.3346134038179269    0.3247234876048387    0.6697159452651472 Ba
   0.6587097539819486    0.3289576280986498    0.6602553086448225 Ba
   0.0116710666918084    0.6726626000238710    0.6678208417551655 Ba
   0.3297014300771530    0.6788874724611453    0.6653821329058183 Ba
   0.6616245553833131    0.6661392340401551    0.6650390111224256 Ba
   0.8273052453100997    0.1653021025326734    0.1692133376192186 Zr
   0.1632991731832139    0.4953044853416881    0.1638650422211485 Zr
   0.5043603778339472    0.5039883683621725    0.1667787113782001 Zr
   0.1664213277758713    0.8288477247542571    0.1679294553483572 Zr
   0.5006377048902215    0.8232706120645380    0.1678701193823647 Zr
   0.1656058717471876    0.1639646104611225    0.5030377255493556 Zr
   0.4955665401756545    0.1645956919286712    0.4928812559209841 Zr
   0.4950236937966189    0.5003302729729755    0.4998810273711871 Zr
   0.8339693119754463    0.5000202310067382    0.5056992972274090 Zr
   0.1653465763527311    0.8374000642181654    0.5009965335599614 Zr
   0.8338483102770993    0.8293274545323948    0.5027755265563880 Zr
   0.1654849884393532    0.1698760590051692    0.8397542708865170 Zr
   0.5043400687142437    0.1648353843400721    0.8328999342332947 Zr
   0.1692090906653718    0.4974045539513572    0.8300820770791061 Zr
   0.8320815680295905    0.5032016204708640    0.8260848886909332 Zr
   0.4987569654894661    0.8359416197180370    0.8321500812262772 Zr
   0.8291010208331800    0.8305438653885594    0.8297257450229224 Zr
   0.1685568089954769    0.2439533670976683   -0.0035142713538127 O
   0.5311249987669990    0.1688067870457413   -0.0039996607596121 O
   0.7833801392600024    0.1651693583041456    0.0107211259086288 O
   0.1458534108412363    0.5000989474512216   -0.0029456034617010 O
   0.5154997047489210    0.4956819469552622    0.0039944618328550 O
   0.8377594711870232    0.5188376669089418   -0.0108816047573592 O
   0.1742826229235253    0.8094070428391986    0.0075866647681078 O
   0.5006028028185214    0.8312050360830140   -0.0004068700199555 O
   0.8281301065599350    0.8060437754025731   -0.0086201821460339 O
   0.1793877723077943   -0.0082125236272127    0.1780202451989078 O
   0.5125234011543237   -0.0130018293482895    0.1750232673979286 O
   0.8189228832197943   -0.0023047572689296    0.1669179869434637 O
  -0.0090562749664467    0.1660208499325222    0.1248335852429708 O
   0.3364190423583704    0.1583277681907161    0.1340773622514075 O
   0.6735949238399914    0.1601829631491266    0.2354917245275711 O
   0.1887859686209836    0.3323461739307235    0.1514333498324445 O
   0.5180277803360923    0.3412366311904650    0.1722920138473808 O
   0.8062618626840738    0.3301465526608971    0.1675443809749535 O
   0.0063174683987537    0.4508243001095762    0.1675763827059745 O
   0.3332415433829271    0.4949299163381277    0.1653384975660278 O
   0.6670372879920529    0.5366987240500158    0.1692681018236789 O
   0.1609334042921469    0.6594655886894427    0.1718854520705226 O
   0.4740819699377160    0.6629382089160430    0.1492146472870430 O
   0.9069216570747064    0.6608832362713327    0.1657672078276160 O
   0.0079800663527628    0.8617272494490882    0.1569680342009060 O
   0.3332768974232957    0.8323156117465322    0.1733264308407213 O
   0.6639020133498975    0.8015959265241084    0.1679339262631044 O
   0.1663469235766952    0.1860964514822268    0.3372768901272702 O
   0.4555742865973738    0.1741076517040441    0.3349348108625085 O
   0.8857491767685912    0.1649990048076809    0.3219017094181280 O
   0.1550367886864930    0.4893523272870983    0.3284826783259584 O
   0.5095820848655418    0.5145535259590186    0.3323435121619504 O
   0.8376382287082926    0.5221575631408415    0.3439044346039210 O
   0.1581388475778293    0.8182629869527407    0.3343224121985530 O
   0.4995738281837170    0.8016247427225274    0.3282746901889835 O
   0.8402148804275401    0.8038010496389820    0.3410655819718968 O
   0.1568348705876067    0.0008851633572301    0.4737121695942165 O
   0.5078312011320003    0.0039595859404651    0.4742697604051894 O
   0.8319842654727684   -0.0095869194793700    0.4752993559778179 O
   0.0063429297646958    0.1701236786171173    0.5163821419813487 O
   0.3288262015617998    0.1548048477627384    0.5122257532773451 O
   0.6579287200910721    0.1717779845868300    0.4930298668997325 O
   0.1718066870148891    0.3242700680211302    0.5280869604780295 O
   0.4954765146559226    0.3324779861421726    0.4942323203596115 O
   0.8309005909365759    0.3388129355704828    0.4805417977217201 O
  -0.0031022088622418    0.4999971432699810    0.5239034655926870 O
   0.3371447793068350    0.5002371571288663    0.4671893809721678 O
   0.6635435607099904    0.5039973550662720    0.5045266641780000 O
   0.1686492888867319    0.6736696745506495    0.5120291444321795 O
   0.4924329341810296    0.6611009580431284    0.5244105994431101 O
   0.8359426157876407    0.6648606506843584    0.5346036299685395 O
  -0.0005368951151987    0.8310950518223629    0.5101895524774872 O
   0.3262615458167234    0.8447892209744785    0.4965189034872222 O
   0.6719806184590398    0.8219035749374296    0.4990718840326501 O
   0.1674204067681446    0.1303624555309557    0.6766794291558180 O
   0.4893794540349006    0.1553626806224999    0.6627463698188718 O
   0.8392341230886857    0.1541339135255751    0.6640571333243960 O
   0.2139107260845481    0.5085137025680063    0.6740837721684287 O
   0.4772994536527983    0.4856520930314052    0.6598715424062367 O
   0.8191389936546877    0.4692147214837122    0.6663448562689923 O
   0.1677944226414244    0.8610855157572939    0.6646027028906772 O
   0.5011197628875871    0.8557043192036470    0.6709464269220667 O
   0.8262517558152822    0.8612102072181734    0.6664987592590812 O
   0.1655759191832893    0.0187074286356983    0.9014889381211026 O
   0.5206210959040046    0.0006534830003580    0.8438898533737189 O
   0.8118776090417561   -0.0091389611538747    0.8543717812226245 O
   0.0024042901732992    0.1660535951702882    0.8463887433258699 O
   0.3346495913622088    0.1646817848877505    0.8434795045630391 O
   0.6603601448650194    0.1733941427066188    0.7957986560313748 O
   0.1612491970358954    0.3314137968138486    0.7983977897398549 O
   0.5041923389350830    0.3273038793054423    0.8292302290443375 O
   0.8257001387718923    0.3402148610181910    0.8469542290493784 O
   0.0021545052661918    0.4986754003152269    0.8105554964146392 O
   0.3257739664038482    0.4853917357604563    0.8692392754986838 O
   0.6688578984128694    0.5231885008902082    0.8253602744552501 O
   0.1699304156821001    0.6655608991035943    0.8250407333056445 O
   0.4712942461594832    0.6751139553955028    0.8248525341084562 O
   0.8464640610909765    0.6673815882962624    0.7991523931647269 O
  -0.0070895292182426    0.8462357793631002    0.8304703823900162 O
   0.3378430844553209    0.8629731945472348    0.8329750377359980 O
   0.6632899075784177    0.8080084763678388    0.8292194034810680 O
   0.1626241277222992    0.1595726718289963    0.1631480419528881 Y
   0.5102061167136327    0.1643267520561318    0.1712939069618642 Y
   0.8396136968571999    0.5032390626145731    0.1673997838327459 Y
   0.8392386506289881    0.8195776851741067    0.1664531752611451 Y
   0.8329578669016138    0.1643291241436930    0.4890534280510438 Y
   0.1701569333970117    0.4971987181263120    0.5066153724144400 Y
   0.4987138987633387    0.8323288351229482    0.4989342189088184 Y
   0.8255447756248128    0.1643457805746522    0.8381945464901256 Y
   0.4945956369391126    0.5021013014717012    0.8301501652391192 Y
   0.1665834364768776    0.8481625615176197    0.8395860134253574 Y
   0.1732974581129237    0.3018356888034226    0.0606627539736359 H
