Ba27 Y10 Zr17 H1 O81
1.0
  12.5760000000000005    0.0000000000000000    0.0000000000000000
   0.0000000000000000   12.5760000000000005    0.0000000000000000
   0.0000000000000000    0.0000000000000000   12.5760000000000005
Ba Zr O Y H
27 17 81 10 1
direct
  -0.0184266882415692   -0.0040303189693141   -0.0001103699305952 Ba
   0.3455158129553015   -0.0038458119816628    0.0081203677782024 Ba
   0.6653880500017216   -0.0129110613605493    0.0075093609982967 Ba
  -0.0196490118781620    0.3403570905651709   -0.0081223744868403 Ba
   0.3644132106609599    0.3308508878636336    0.0028876380376948 Ba
   0.6673886219845985    0.3425300618222035   -0.0032932886359347 Ba
   0.0042543313342838    0.6685876726125567   -0.0112860569466587 Ba
   0.3256597086038707    0.6609802283229375   -0.0017286023474560 Ba
   0.6611809169900950    0.6628820118655863   -0.0048999716066606 Ba
  -0.0004948873180412   -0.0075712128072130    0.3267754697228121 Ba
   0.3326629550298142   -0.0004995444982267    0.3315634209049894 Ba
   0.6700808624172732   -0.0188882493536580    0.3334758764136090 Ba
   0.0019875999400986    0.3332309137439554    0.3404179096604875 Ba
   0.3298287070609989    0.3360025992271478    0.3304545502587254 Ba
   0.6662847629469844    0.3425484465852512    0.3373581176497157 Ba
   0.0059822501009568    0.6595708999792094    0.3436669606724647 Ba
   0.3298784804474564    0.6627459522056666    0.3294964131084364 Ba
   0.6686164039152667    0.6644745840519682    0.3425258463339347 Ba
  -0.0066561046956114    0.0040125918065833    0.6629957920530256 Ba
   0.3372267840301033    0.0007148020413470    0.6664340137251820 Ba
   0.6653094483940417    0.0068196668966144    0.6616174689925379 Ba
  -0.0085270132923035    0.3236944185540384    0.6664665202745658 Ba
   0.3346134388689144    0.3247234863587271    0.6697159625047936 Ba
   0.6587097785726308    0.3289576375445782    0.6602553069369732 Ba
   0.0116709932873122    0.6726625846539609    0.6678208359662738 Ba
   0.3297014879867662    0.6788873527925328    0.6653820423128108 Ba
   0.6616245778391286    0.6661392434173586    0.6650390571830888 Ba
   0.8273052543924286    0.1653022610195327    0.1692132999356639 Zr
   0.1632992094388253    0.4953045021452500    0.1638649924981998 Zr
   0.5043603944468895    0.5039883432270993    0.1667787097802210 Zr
   0.1664213532458013    0.8288476626719588    0.1679294861086529 Zr
   0.5006376108652855    0.8232706391527007    0.1678700643525545 Zr
   0.1656059105307318    0.1639646858197298    0.5030378829762594 Zr
   0.4955666492602829    0.1645957722681639    0.4928812887103149 Zr
   0.4950236338477055    0.5003302155747079    0.4998810317584271 Zr
   0.8339693234696333    0.5000201546315522    0.5056994211917837 Zr
   0.1653465611195352    0.8373999310338731    0.5009965354325361 Zr
   0.8338484249837707    0.8293274219301224    0.5027756179943176 Zr
   0.1654850870959169    0.1698759754562093    0.8397542768037234 Zr
   0.5043400244922932    0.1648354058822487    0.8328999502941186 Zr
   0.1692091230895524    0.4974043937103034    0.8300821889497535 Zr
   0.8320817005283655    0.5032016410604435    0.8260849346313768 Zr
   0.4987569055391646    0.8359417454681632    0.8321501478126252 Zr
   0.8291010598716575    0.8305438515199202    0.8297258775798334 Zr
   0.1685567957627044    0.2439531637390553   -0.0035140836934113 O
   0.5311250242713621    0.1688068254385002   -0.0039997726916137 O
   0.7833801824978703    0.1651693074321917    0.0107211561174235 O
   0.1458534681666260    0.5000986650174807   -0.0029455988798122 O
   0.5154996898174986    0.4956819742908674    0.0039944134816555 O
   0.8377594090739016    0.5188376438316570   -0.0108816228648965 O
   0.1742826119549266    0.8094070588789870    0.0075865248782292 O
   0.5006028697900798    0.8312049730255284   -0.0004068588045347 O
   0.8281301455520584    0.8060439000374980   -0.0086201825689807 O
   0.1793877995019945   -0.0082127136643612    0.1780201319825352 O
   0.5125233695040634   -0.0130018499209744    0.1750232137824561 O
   0.8189229726525895   -0.0023046555937884    0.1669179148066749 O
  -0.0090563058978321    0.1660208526222784    0.1248335362618428 O
   0.3364190307592565    0.1583278536810987    0.1340774439815487 O
   0.6735949288527495    0.1601829546184641    0.2354916515394137 O
   0.1887858730499000    0.3323461821067520    0.1514334868229042 O
   0.5180277521120055    0.3412367022232526    0.1722920712735503 O
   0.8062619538015721    0.3301466229082031    0.1675443779042017 O
   0.0063175389411549    0.4508243765820344    0.1675764084039244 O
   0.3332414925657141    0.4949299808980973    0.1653384919464620 O
   0.6670370855811641    0.5366986824247660    0.1692681949083299 O
   0.1609334280661850    0.6594655718215883    0.1718854205520366 O
   0.4740820034584951    0.6629383712856844    0.1492147715601236 O
   0.9069214901658235    0.6608832422453816    0.1657672292825046 O
   0.0079801325755649    0.8617272671854649    0.1569680806031985 O
   0.3332768373855736    0.8323155877840201    0.1733263667220437 O
   0.6639019842385598    0.8015958573028606    0.1679339769668630 O
   0.1663468877004826    0.1860963379511629    0.3372769928591517 O
   0.4555743567106736    0.1741076150072130    0.3349348625380522 O
   0.8857492878493500    0.1649989932462617    0.3219015905646289 O
   0.1550369015258106    0.4893524660915091    0.3284826905974112 O
   0.5095821213539973    0.5145534505695095    0.3323434957640886 O
   0.8376380767781496    0.5221574862188192    0.3439045381448213 O
   0.1581389254278035    0.8182630105525517    0.3343225266324362 O
   0.4995738331494297    0.8016248319652596    0.3282746028307333 O
   0.8402147867431214    0.8038011574630310    0.3410656377741107 O
   0.1568351049089405    0.0008851513269765    0.4737121954326927 O
   0.5078309868436204    0.0039595908293611    0.4742697072071704 O
   0.8319842748576002   -0.0095869448642207    0.4752994335554116 O
   0.0063429565574981    0.1701235051565748    0.5163821909122659 O
   0.3288262201300317    0.1548050105310372    0.5122258431402374 O
   0.6579286539651129    0.1717778250233892    0.4930298473254620 O
   0.1718064853317940    0.3242701445507704    0.5280869882075688 O
   0.4954766254850016    0.3324779969319956    0.4942322968432636 O
   0.8309005983088334    0.3388128858963680    0.4805418729978180 O
  -0.0031021396786430    0.4999971580005568    0.5239032361929108 O
   0.3371447929966235    0.5002371508641635    0.4671895408726620 O
   0.6635435222727687    0.5039973729821398    0.5045267087990315 O
   0.1686491659536821    0.6736697905015390    0.5120291975382026 O
   0.4924330031402727    0.6611008098260721    0.5244105220885408 O
   0.8359425982224182    0.6648606984918988    0.5346035148672221 O
  -0.0005369639994505    0.8310951652775467    0.5101895050052876 O
   0.3262617425376250    0.8447890364154614    0.4965189492031474 O
   0.6719806111276621    0.8219036490200408    0.4990718569696339 O
   0.1674204233867718    0.1303623997053035    0.6766795104612132 O
   0.4893794782514415    0.1553625584935688    0.6627463656909193 O
   0.8392342415178152    0.1541339161017817    0.6640572182475651 O
   0.2139106075123290    0.5085137711993599    0.6740837904107095 O
   0.4772995123431356    0.4856521954324783    0.6598715776782160 O
   0.8191390495277944    0.4692149193175378    0.6663448115028332 O
   0.1677944426251851    0.8610855099032045    0.6646026402659228 O
   0.5011197935294379    0.8557043199671558    0.6709464231569450 O
   0.8262517694373452    0.8612100755785894    0.6664987006614401 O
   0.1655759619794077    0.0187074397683166    0.9014887794856703 O
   0.5206211082086162    0.0006534010041953    0.8438899525265596 O
   0.8118776735744562   -0.0091389393901831    0.8543717890803442 O
   0.0024042831638000    0.1660536308091525    0.8463888265345805 O
   0.3346495360631963    0.1646817382518595    0.8434794923081844 O
   0.6603601230407681    0.1733941031014602    0.7957986109520975 O
   0.1612492028964174    0.3314138149267810    0.7983978512800629 O
   0.5041923788603840    0.3273039076870644    0.8292302347801488 O
   0.8257001551328508    0.3402148593753946    0.8469542694398396 O
   0.0021545919062021    0.4986754267345340    0.8105555827686317 O
   0.3257739636176734    0.4853917868256704    0.8692391870500102 O
   0.6688579195769324    0.5231884299299735    0.8253602274394330 O
   0.1699304147762784    0.6655608935513575    0.8250407734111009 O
   0.4712942791400244    0.6751138800513772    0.8248524859994125 O
   0.8464640115587023    0.6673815273082971    0.7991525425345267 O
  -0.0070895456334073    0.8462357476724637    0.8304703368586246 O
   0.3378432351671063    0.8629731336235676    0.8329750729444650 O
   0.6632899697310850    0.8080084910723351    0.8292194068540997 O
   0.1626242404030106    0.1595726453145131    0.1631480922172237 Y
   0.5102060425905522    0.1643268077679985    0.1712939072907164 Y
   0.8396137837414032    0.5032390301390366    0.1673997060304021 Y
   0.8392386892048606    0.8195776826191544    0.1664531587670058 Y
   0.8329577728652005    0.1643291134374946    0.4890534347755411 Y
   0.1701569555399175    0.4971987554230360    0.5066152885564930 Y
   0.4987139221437344    0.8323287795770318    0.4989342234743741 Y
   0.8255448454737988    0.1643458601494009    0.8381946556246763 Y
   0.4945956401668196    0.5021012674385494    0.8301501689918669 Y
   0.1665834809136718    0.8481624424378651    0.8395860130531896 Y
   0.1732974533538441    0.3018355040342063    0.0606626287319891 H
