Ba27 Y10 Zr17 H2 O81
1.0
  12.5760000000000005    0.0000000000000000    0.0000000000000000
   0.0000000000000000   12.5760000000000005    0.0000000000000000
   0.0000000000000000    0.0000000000000000   12.5760000000000005
Ba H O Y Zr H
27 1 81 10 17 1
direct
  -0.0313758598308468   -0.0078056184037394    0.0091105982452554 Ba
  -0.0091625283550979    0.0042713981059879    0.3278827541620442 Ba
  -0.0111862838251308    0.0198137349349891    0.6665147669453774 Ba
   0.0136747788864856    0.3368268941384977    0.0025955288650457 Ba
  -0.0076501616065112    0.3404969477819788    0.3246665935078556 Ba
   0.0036054162112951    0.3317337342376743    0.6651811034281992 Ba
   0.0114243157002580    0.6720789348442202    0.0053578124166899 Ba
   0.0009708279005686    0.6632998696428117    0.3367834271269108 Ba
  -0.0033230188238633    0.6446298157317748    0.6680013824599128 Ba
   0.3574736204588908   -0.0008909192895897    0.0061925129434876 Ba
   0.3369148221237538   -0.0048406706190968    0.3354171364739509 Ba
   0.3438815480770074    0.0015707452169346    0.6604152833909823 Ba
   0.3333836558914542    0.3282275124654439    0.0060808099169238 Ba
   0.3299967511900217    0.3320250867224503    0.3341080069270318 Ba
   0.3316569845118759    0.3366308483339986    0.6615312811683467 Ba
   0.3342178124673168    0.6765977432970578   -0.0055643907986080 Ba
   0.3369658522828700    0.6659375248321673    0.3380897378954053 Ba
   0.3368143544535071    0.6670384919538853    0.6621466702488491 Ba
   0.6666483911692466   -0.0148527004492979   -0.0024035707983433 Ba
   0.6699259825728409    0.0042210069448172    0.3375963071055204 Ba
   0.6636716871393428    0.0075994992255929    0.6674468969147161 Ba
   0.6661841577014338    0.3269134847158097    0.0046573523310650 Ba
   0.6695172389323246    0.3394005477382701    0.3303340166240893 Ba
   0.6634645589155397    0.3374948722784573    0.6625915296929606 Ba
   0.6624468941061632    0.6701802050640779   -0.0096007156083638 Ba
   0.6735661162316871    0.6658030490565958    0.3388685824961294 Ba
   0.6582033157362216    0.6567385735475768    0.6674179058173143 Ba
   0.1677933052006314   -0.0870649303061361   -0.0035404801122500 H
   0.1827740484138622    0.1659352485823643   -0.0003146409467768 O
   0.1617021275778320   -0.0018029063164494    0.1762531530183143 O
   0.0073339096598116    0.1614397492458465    0.1459670689137325 O
   0.1572622284484425    0.1904696177935626    0.3289669516598729 O
   0.1638200369049058    0.0097912002614099    0.4543240142929676 O
   0.0030421719494972    0.1739125204933282    0.5061765442209087 O
   0.1735765459496121    0.1602295662413565    0.6628750895149692 O
   0.1582484590257979    0.0089581025567161    0.9081119327323351 O
   0.0118430288011954    0.1683612743430235    0.8341596925125092 O
   0.1926399682143644    0.5035893677277482   -0.0019415926805352 O
   0.1734989250466714    0.3318572444252462    0.1587367911579611 O
   0.0124795217143633    0.5026764606643923    0.1548336755972995 O
   0.1528369543021783    0.5052866860439059    0.3361997512580925 O
   0.1806917286193014    0.3325576385303086    0.5001635311111085 O
   0.0003398347422421    0.4885926997347440    0.4955296089461351 O
   0.1513890691646618    0.4797899487634952    0.6638730153660635 O
   0.1854031461149130    0.3304588279143453    0.8362347509385414 O
   0.0118576070636697    0.4965244901571405    0.8439760782518547 O
   0.1834897649441447    0.8359076161811495    0.0087088760796092 O
   0.1801289893446902    0.6692852417622670    0.1579006834003872 O
   0.0023976209691482    0.8335647105286448    0.1725087779104797 O
   0.1894079052535382    0.8055527292212513    0.3339169702482981 O
   0.1629343338144951    0.6632812304021733    0.5280947570624520 O
  -0.0024458142296981    0.8381098879572715    0.4403303643979873 O
   0.1633295144266255    0.9095254701961024    0.6650531442941358 O
   0.1730168259329468    0.6676701893074871    0.8165657661488699 O
   0.0037866387076906    0.8349860441852287    0.8777412842863009 O
   0.5029728877120724    0.1625804011742968    0.0012263886097758 O
   0.5192695800642947   -0.0011143081689278    0.1680681588332629 O
   0.3321862484899090    0.1500264879400207    0.1698718078458193 O
   0.4896863382108234    0.1603866267577866    0.3352949656509379 O
   0.5081843730829012    0.0022268656867373    0.5024424691420454 O
   0.3318131570209366    0.1570947724987579    0.4963946430635084 O
   0.4916410040667242    0.1708707957048559    0.6636085482211890 O
   0.5197909143473388    0.0032414599082088    0.8312661076875765 O
   0.3307454463284691    0.1346634886425403    0.8316930528972482 O
   0.4400439869605727    0.5018050996743810   -0.0003193216892806 O
   0.4827130129538422    0.3260528807850867    0.1676189901296581 O
   0.3259922064312959    0.4938854988354446    0.2100367816894876 O
   0.5247194679726508    0.5027203302293740    0.3376146887541084 O
   0.4870900064824381    0.3322452553774445    0.4921352891202248 O
   0.3327013662148037    0.5055562683612416    0.4938544898287484 O
   0.5070369954440263    0.4919357865067109    0.6579656606541733 O
   0.4581503854170882    0.3233098443163733    0.8357714959847367 O
   0.3250720025943680    0.5065796604732635    0.7875158761889177 O
   0.5001105423014534    0.8363749846309312    0.0006444510121141 O
   0.4712778821828827    0.6749808982132668    0.1688595824895123 O
   0.3357682669534175    0.8562526100260862    0.1707717113879620 O
   0.5114914561195473    0.8364243372916484    0.3382920699508731 O
   0.4982658259935153    0.6669858639388193    0.5005922631124914 O
   0.3392383610971674    0.8406922416563863    0.5003386815602939 O
   0.4797266452892041    0.8350195728911308    0.6677288745665236 O
   0.4882738606066928    0.6728508300467774    0.8331623168716291 O
   0.3362162161848185    0.8579103909629475    0.8379907527476558 O
   0.8050607848413328    0.1259196968259968   -0.0018058768188742 O
   0.8224782330400349   -0.0092577735029529    0.1774726940313057 O
   0.6587445379205387    0.1848405409686435    0.1856254397325895 O
   0.8452440748366911    0.1625760305956352    0.3381046071792894 O
   0.8259555251270926    0.0101742603324866    0.5171998126503633 O
   0.6627349767367415    0.1766294036766169    0.4966942201772724 O
   0.8346241927376709    0.2002955361713847    0.6613566379944457 O
   0.8215448398289940    0.0007918853473816    0.8013947002771985 O
   0.6549004447537388    0.1971450434115823    0.8209212980690418 O
   0.8413210469552536    0.5765597438912288   -0.0062238355155924 O
   0.8450587993327824    0.3368087497883572    0.1478265230028720 O
   0.6616391803550689    0.5028201500955498    0.1302095775957096 O
   0.8233060419212048    0.4937879783143645    0.3342706732572663 O
   0.8313277190736651    0.3323056121537205    0.4773007917846587 O
   0.6668789088056956    0.4956503127736184    0.5080044991438775 O
   0.8388191690721828    0.4613806246074384    0.6623915615477136 O
   0.8459636553589612    0.3344250062269935    0.8962753656661644 O
   0.6607805972247774    0.4817128343459103    0.8499008710606204 O
   0.8195452602730459    0.8312171641841810    0.0068494561783822 O
   0.8442218775666280    0.6743883620401426    0.2039933294476781 O
   0.6605810803181905    0.8074881031972622    0.1610622170635905 O
   0.7932361283719140    0.8426821701183155    0.3374644250227101 O
   0.8356995216970451    0.6564238219599031    0.5068887456697482 O
   0.6630033426635615    0.8303892561737890    0.5388985173678013 O
   0.9243797906361546    0.8321339080600820    0.6621868690540325 O
   0.8241951252934869    0.6620387498860448    0.7766868377494357 O
   0.6608003408765052    0.8249897172100681    0.8168477189733818 O
   0.1588254347889936    0.8403354417754693    0.5035808364763293 Y
   0.1631704796062537    0.8413467222436545    0.8204091607212514 Y
   0.4937164379326898    0.5016697392110855    0.1642647663643563 Y
   0.4906425240191535    0.4956092103730039    0.8346465170175196 Y
   0.8309199437769735    0.1671574520543183    0.1632903169942683 Y
   0.8302861328451551    0.1730890875718423    0.8348612094826307 Y
   0.8335043031078651    0.5086207953579635    0.1549260329905276 Y
   0.8339884568629311    0.4980503276345981    0.8383217833547162 Y
   0.8381857861713927    0.8328058593179124    0.5090253506915594 Y
   0.8392497686089405    0.8279421001771529    0.8227825018641838 Y
   0.1660151449400099    0.1639206836456362    0.1687820322055260 Zr
   0.1663701412171721    0.1661973785377745    0.4933484175702285 Zr
   0.1710902404663538    0.1689010192381554    0.8263913766445384 Zr
   0.1724066681065753    0.5018856029253136    0.1666490275476064 Zr
   0.1655315840256943    0.5006216610324553    0.5009328980962866 Zr
   0.1716374930555981    0.5022184745600086    0.8310065403467193 Zr
   0.1682931632548241    0.8327979672128349    0.1813428761408501 Zr
   0.5004431715119791    0.1662702964224812    0.1697389691122779 Zr
   0.4981652728564737    0.1680298639727047    0.4979799872074817 Zr
   0.4971380751218396    0.1679930799223743    0.8328668722064725 Zr
   0.5013132977284398    0.4993735686227688    0.4967560326465462 Zr
   0.5009637453380958    0.8317942333099100    0.1708176463182626 Zr
   0.5032780805707465    0.8339417407039093    0.5048681108814383 Zr
   0.4995290163678485    0.8349096200970250    0.8307646347252988 Zr
   0.8330899956972658    0.1716144383297806    0.5000157627679467 Zr
   0.8328559556302128    0.4947146463604643    0.4994426153549276 Zr
   0.8269337524993546    0.8291530676879449    0.1724970289167553 Zr
   0.1652698225875824    0.0736175770150758    0.9668127209405952 H
