Ba27 Zr27 H1 O81
1.0
  12.5760000000000005    0.0000000000000000    0.0000000000000000
   0.0000000000000000   12.5760000000000005    0.0000000000000000
   0.0000000000000000    0.0000000000000000   12.5760000000000005
Ba Zr O Ba Zr O Ba Zr O Ba Zr O Ba Zr O Ba Zr O Ba Zr O Ba Zr O Ba Zr O Ba Zr O Ba Zr O Ba Zr O Ba Zr O Ba Zr O Ba Zr O Ba Zr O Ba Zr O Ba Zr O Ba Zr O Ba Zr O Ba Zr O Ba Zr O Ba Zr O Ba Zr O Ba Zr O Ba Zr O Ba Zr O H
1 1 3 1 1 3 1 1 3 1 1 3 1 1 3 1 1 3 1 1 3 1 1 3 1 1 3 1 1 3 1 1 3 1 1 3 1 1 3 1 1 3 1 1 3 1 1 3 1 1 3 1 1 3 1 1 3 1 1 3 1 1 3 1 1 3 1 1 3 1 1 3 1 1 3 1 1 3 1 1 3 1
direct
  -0.0019382237200505   -0.0017510259929429    0.0009847656375989 Ba
   0.1616089712094562    0.1666668360705940    0.1776145139244633 Zr
   0.1673535163143137    0.1666673238243503    0.0024655245704265 O
   0.1645703450455844    0.0013620893177355    0.1662217000129560 O
  -0.0018767888664648    0.1666667078495404    0.1651464798133702 O
  -0.0029420721974793   -0.0019764144361052    0.3353150959830659 Ba
   0.1660959737833245    0.1666666246249141    0.5027425003329344 Zr
   0.1731101238834258    0.1666667659528073    0.3379747796891315 O
   0.1657247435388806   -0.0000305644068861    0.5010649361196341 O
  -0.0006675503927079    0.1666666012837603    0.4997266153338831 O
  -0.0016683151369264   -0.0011967584039457    0.6671975688644016 Ba
   0.1663697886454764    0.1666666767655261    0.8295564291732479 Zr
   0.1666097028892857    0.1666671613977108    0.6675719838083211 O
   0.1667568610210159    0.0010032883497031    0.8389595196947882 O
   0.0008462574434136    0.1666666083414455    0.8392586061481447 O
  -0.0019381133733582    0.3350841056333199    0.0009846142864177 Ba
   0.1659923459829776    0.4999559877329667    0.1676137378742234 Zr
   0.1674435594860187    0.5022394845303737    0.0008730393337360 O
   0.1645705604872856    0.3319714681946333    0.1662215163158886 O
  -0.0003801896899930    0.4998555690041887    0.1671454427248559 O
  -0.0029421417647811    0.3353096371111537    0.3353150121106794 Ba
   0.1663182746496251    0.4999312874652465    0.5008957366093865 Zr
   0.1664407730215325    0.4984282611849934    0.3340452453280884 O
   0.1657248701364775    0.3333639015767752    0.5010645384515240 O
  -0.0003498703498183    0.4999510896786348    0.5005233723153661 O
  -0.0016684157626089    0.3345296771478091    0.6671975819645604 Ba
   0.1664343717880633    0.5001230558663540    0.8339923496654719 Zr
   0.1666471543533257    0.4982113546283313    0.6676809849247962 O
   0.1667567376376211    0.3323299816094134    0.8389600722993015 O
   0.0002359306072778    0.4992671644631208    0.8339383267306768 O
  -0.0003523680380133    0.6666664705082911    0.0006052200918565 Ba
   0.1659922845731079    0.8333773412074713    0.1676137430820407 Zr
   0.1674441683679687    0.8310942514519667    0.0008729245740399 O
   0.1663058564926532    0.6666668185373535    0.1692708647713243 O
  -0.0003803240029498    0.8334779219713490    0.1671453639384217 O
  -0.0004404520059137    0.6666668265117169    0.3339909270719327 Ba
   0.1663182701781232    0.8334020410519012    0.5008958392447305 Zr
   0.1664405221667064    0.8349050877639280    0.3340452653720634 O
   0.1665248141354732    0.6666666664079404    0.5007073084703557 O
  -0.0003501358912499    0.8333825070807012    0.5005235958688991 O
  -0.0002618226729611    0.6666665462188063    0.6668791423560113 Ba
   0.1664345463299348    0.8332100539741123    0.8339922414240653 Zr
   0.1666470735343523    0.8351218768544212    0.6676808925599144 O
   0.1661680061086623    0.6666668096170056    0.8326724771126779 O
   0.0002356905807358    0.8340664530930307    0.8339385832760827 O
   0.3404483404631527   -0.0136921987896438   -0.0024517994645009 Ba
   0.4957634909558626    0.1666665908877266    0.1641926652831401 Zr
   0.5101929664596917    0.1666665373831642   -0.0007331113990975 O
   0.4963157046102956    0.0002107758684414    0.1671523889798274 O
   0.3263071526099317    0.1666666243787985    0.1378626123087025 O
   0.3332126059392004   -0.0024879221880142    0.3343687129293801 Ba
   0.4981843932317892    0.1666667349249854    0.4992444381833184 Zr
   0.4879672515210302    0.1666665598660365    0.3310224407229603 O
   0.4996948234516280    0.0001904640620641    0.4993462008027230 O
   0.3325157123527425    0.1666666075414202    0.5033535546678811 O
   0.3341884716361468   -0.0009153649530466    0.6667231658898070 Ba
   0.4997697928109733    0.1666667991554689    0.8336281402029272 Zr
   0.4971935537884974    0.1666664544795596    0.6668718058285374 O
   0.4990886024604772   -0.0004679105830201    0.8331998043666018 O
   0.3320891969444338    0.1666664752671151    0.8416339317320466 O
   0.3404487333982180    0.3470253551802447   -0.0024516481596721 Ba
   0.5002111599544964    0.5004209141109595    0.1674981352782428 Zr
   0.5012310860571612    0.5015303815971041    0.0000745551430762 O
   0.4963152358443712    0.3331224336971286    0.1671523807395180 O
   0.3329544911786251    0.5004679544140703    0.1669552350414295 O
   0.3332130470989630    0.3358212693208340    0.3343688175838850 Ba
   0.4999616065774000    0.5000293486397501    0.5000629233106949 Zr
   0.4995028194126187    0.4997044791069081    0.3335238160787328 O
   0.4996946376056392    0.3331428482005880    0.4993462615456627 O
   0.3331156732383395    0.4995773457864750    0.5003959885331638 O
   0.3341884821251008    0.3342485131524030    0.6667232926737169 Ba
   0.5011478885447521    0.5007312357442615    0.8324162795521378 Zr
   0.4999427466818316    0.4995644953586337    0.6664256987284686 O
   0.4990883752509443    0.3338012710154525    0.8331998572094612 O
   0.3336446128518007    0.5010248739785139    0.8331670010440373 O
   0.3332857252885337    0.6666666041609106    0.0005769169180294 Ba
   0.5002111731158174    0.8329126038438835    0.1674981513401921 Zr
   0.5012309573232252    0.8318030634472792    0.0000745891559260 O
   0.4998806307128995    0.6666667004918172    0.1677055431563717 O
   0.3329545902179911    0.8328655006155093    0.1669556137433865 O
   0.3330463560321961    0.6666666178472402    0.3340975647375385 Ba
   0.4999617207045691    0.8333040369385357    0.5000629588892185 Zr
   0.4995029083065938    0.8336289754411591    0.3335237946469791 O
   0.4997657461787917    0.6666666475637046    0.4999288764985343 O
   0.3331157593351087    0.8337561341636568    0.5003958549982743 O
   0.3332296036226727    0.6666666436819866    0.6665010652787804 Ba
   0.5011479495622583    0.8326018862837936    0.8324163314951782 Zr
   0.4999428370586836    0.8337692249129683    0.6664258715585422 O
   0.5006458880136183    0.6666665447012556    0.8323560457826946 O
   0.3336447052433909    0.8323085308156226    0.8331667803886690 O
   0.6667858804847525    0.0003088169298512    0.0002233972400415 Ba
   0.8296821443362520    0.1666666327348573    0.1677614037050794 Zr
   0.8302234147671448    0.1666667123367419    0.0011858669146953 O
   0.8322762690184375    0.0003948686237934    0.1672884846176553 O
   0.6627628686203149    0.1666667388479827    0.1721070937333983 O
   0.6651276241413472    0.0001714885822475    0.3335065075931175 Ba
   0.8322725090930709    0.1666665825661903    0.5006264811435966 Zr
   0.8330379083862892    0.1666665156084227    0.3339538813813869 O
   0.8329470969629192    0.0001217293130050    0.5005977890605147 O
   0.6649904273569751    0.1666665582837064    0.4984082260951880 O
   0.6662968196382604    0.0003239899027912    0.6666061736454341 Ba
   0.8329020440038375    0.1666666312943193    0.8341653396382576 Zr
   0.8343001521179161    0.1666666703888034    0.6673242450545774 O
   0.8337413454194094    0.0002515204012247    0.8338262715625910 O
   0.6665561460015866    0.1666666251214968    0.8301077605136675 O
   0.6667860444832079    0.3330243247735734    0.0002232631551727 Ba
   0.8328601348962219    0.4999786493974312    0.1670506329043724 Zr
   0.8334975100568097    0.4995910858507988    0.0003832611559281 O
   0.8322763904308507    0.3329384122311501    0.1672884220940558 O
   0.6662959474699844    0.4992798740581508    0.1672617743788210 O
   0.6651276817475704    0.3331619011934333    0.3335064619668329 Ba
   0.8328816778578498    0.5000632043024141    0.5003719156880730 Zr
   0.8332355225744599    0.4997509260512515    0.3336041026498598 O
   0.8329470804408473    0.3332115510248636    0.5005976626774126 O
   0.6664525931290798    0.4998070250551079    0.5000662352575390 O
   0.6662971161564915    0.3330092570003513    0.6666061299520982 Ba
   0.8335595379657608    0.4999520261701690    0.8335359593794464 Zr
   0.8336457702386636    0.4997504515047502    0.6669642579768813 O
   0.8337412402534713    0.3330818019087148    0.8338262185703351 O
   0.6671288229435570    0.4996912175782772    0.8329582051006807 O
   0.6673451578476390    0.6666665059658347    0.0002294940567139 Ba
   0.8328600355473810    0.8333546506329341    0.1670506733858001 Zr
   0.8334970869073768    0.8337422205508448    0.0003832974921642 O
   0.8326107945762687    0.6666666268032250    0.1669643023985790 O
   0.6662959260144722    0.8340533422153983    0.1672618191914178 O
   0.6668283504048229    0.6666665831236450    0.3339965639502380 Ba
   0.8328817720789465    0.8332701253383878    0.5003719168255994 Zr
   0.8332355182160534    0.8335824110583021    0.3336041537949829 O
   0.8331615828709107    0.6666666371401725    0.5002671742427508 O
   0.6664526397456694    0.8335263262403404    0.5000662998538850 O
   0.6673558808147491    0.6666666604143328    0.6660647651543478 Ba
   0.8335593234365678    0.8333812963799861    0.8335359314010262 Zr
   0.8336456865339276    0.8335827890439764    0.6669642678816564 O
   0.8340246606980987    0.6666665881562509    0.8334442380042216 O
   0.6671286775083197    0.8336421374201338    0.8329580559545646 O
   0.2446657487846488    0.1666666988190222    0.0237844258918595 H
