Ba8 Y1 Zr7 H1 O24
1.0
   8.3840000000000003    0.0000000000000000    0.0000000000000000
   0.0000000000000000    8.3840000000000003    0.0000000000000000
   0.0000000000000000    0.0000000000000000    8.3840000000000003
Ba Zr O Ba Zr O Ba Zr O Ba Y O Ba Zr O Ba Zr O Ba Zr O Ba Zr O H
1 1 3 1 1 3 1 1 3 1 1 3 1 1 3 1 1 3 1 1 3 1 1 3 1
direct
   0.9841521011876847   -0.0082478626189944    0.0054224978083450 Ba
   0.2499296207857493    0.2479791942934866    0.2623048971355481 Zr
   0.2503144928855766    0.2779570750656265    1.0023054281175681 O
   0.2500618442410869    1.0042416179744549    0.2036070249900314 O
   0.0015826607761813    0.2511607324300874    0.2509659720116027 O
  -0.0093806945074626   -0.0041374962475773    0.5014476293853646 Ba
   0.2498884708460585    0.2575483349028329    0.7332746223580849 Zr
   0.2496114485625739    0.1853582798664674    0.4994042270497915 O
   0.2502523671709611    1.0256750820422380    0.8289354225783858 O
   0.0007413681232851    0.2533572542003253    0.7513458746316585 O
  -0.0023082355478656    0.5013963761629310    1.0010799523990288 Ba
   0.2499503848904930    0.7523885150500954    0.2509384116529462 Zr
   0.2498288997645465    0.6968955553597656    1.0125176684938371 O
   0.2498362633638055    0.4953323411613888    0.2932095983295318 O
  -0.0012661342121784    0.7513734127379322    0.2519044910250902 O
   0.9966645672667074    0.5057169250943552    0.5028926719548589 Ba
   0.2499315907554496    0.7637905497855880    0.7554385213520745 Y
   0.2500131997757310    0.7985178540222546    0.4917223812005147 O
   0.2494733224820206    0.4972745012199973    0.7081687287332261 O
  -0.0086258074259211    0.7548371204078098    0.7524385069691878 O
   0.5158690312834594   -0.0083840357284194    1.0055050052981125 Ba
   0.7499614825675610    0.2508415750554032    0.2522901786753025 Zr
   0.7494650083582822    0.2473505397033465    0.0029497362069686 O
   0.7498593458589013    1.0003022886133641    0.2551004425707717 O
   0.4982404781577999    0.2511819096144267    0.2517856774691070 O
   0.5090705998899697    0.9959315771256141    0.5014186056181162 Ba
   0.7499387590225168    0.2511242781452454    0.7518362354457031 Zr
   0.7503826475655073    0.2512836809282394    0.5011775023024223 O
   0.7495221764245357    0.0025892931907065    0.7512794915248163 O
   0.4990268089663974    0.2542220362198581    0.7505452833496388 O
   0.5023237507162507    0.5014854296908942    1.0011816120261425 Ba
   0.7499682082036436    0.7477287947522233    0.2527202456214686 Zr
   0.7500505982175727    0.7476197169142463    1.0047081684140062 O
   0.7500807552878855    0.4986743817269459    0.2502424024429985 O
   0.5010940221320097    0.7512081312245634    0.2517832008170827 O
   0.5030996262299381    0.5058210750363608    0.5030356302949334 Ba
   0.7499533898938014    0.7493956998492154    0.7522642867917964 Zr
   0.7498944688645572    0.7474407227528128    0.5002072167137271 O
   0.7505195927447242    0.4983659456664208    0.7543560991161641 O
   0.5084897826355709    0.7537515489985306    0.7525648173774915 O
   0.2501935722587026    0.1585323882969360   -0.0226845186077476 H
