Ba27 Y10 Zr17 H1 O81
1.0
  12.5760000000000005    0.0000000000000000    0.0000000000000000
   0.0000000000000000   12.5760000000000005    0.0000000000000000
   0.0000000000000000    0.0000000000000000   12.5760000000000005
Ba Zr O Y H
27 17 81 10 1
direct
  -0.0184267568515701   -0.0040302157858701   -0.0001104039561668 Ba
   0.3455157876932519   -0.0038458133947493    0.0081203837207368 Ba
   0.6653880099869749   -0.0129111210097084    0.0075093499829909 Ba
  -0.0196490613846829    0.3403570746001387   -0.0081223817369573 Ba
   0.3644131745405874    0.3308508446462704    0.0028876808699364 Ba
   0.6673886663399304    0.3425300129201838   -0.0032932823213646 Ba
   0.0042543110568287    0.6685876835050254   -0.0112860868318030 Ba
   0.3256597215063718    0.6609802253138993   -0.0017286118929625 Ba
   0.6611808546332446    0.6628820813707442   -0.0048999724200900 Ba
  -0.0004949328214131   -0.0075713030535518    0.3267752650074703 Ba
   0.3326628121115529   -0.0004994008660267    0.3315634610123471 Ba
   0.6700809165467492   -0.0188883400015293    0.3334758772873629 Ba
   0.0019876276219574    0.3332308848420934    0.3404179322559095 Ba
   0.3298286607571659    0.3360025360760055    0.3304545788917561 Ba
   0.6662846996082534    0.3425485058167975    0.3373581273701756 Ba
   0.0059822913520465    0.6595708141113652    0.3436669735271933 Ba
   0.3298784649312036    0.6627459547286336    0.3294964016794721 Ba
   0.6686164240756644    0.6644745471954531    0.3425258714209307 Ba
  -0.0066561578297523    0.0040126756996357    0.6629956543780144 Ba
   0.3372267520762915    0.0007148328794363    0.6664341741216375 Ba
   0.6653093654789791    0.0068197181685276    0.6616174999516802 Ba
  -0.0085269650847966    0.3236944535203861    0.6664665652933379 Ba
   0.3346134758062480    0.3247235007685615    0.6697159968715481 Ba
   0.6587096763795104    0.3289576750383655    0.6602552919985829 Ba
   0.0116711053737001    0.6726625342433934    0.6678207841645728 Ba
   0.3297014815722105    0.6788874880827911    0.6653821693953210 Ba
   0.6616245185665006    0.6661391880215780    0.6650390225167322 Ba
   0.8273053005833580    0.1653021717736333    0.1692133245989698 Zr
   0.1632991746419830    0.4953044992427486    0.1638650756091949 Zr
   0.5043604066368242    0.5039882642179302    0.1667787502662607 Zr
   0.1664212697200513    0.8288477117596985    0.1679295344435603 Zr
   0.5006376191355354    0.8232706945417599    0.1678701638058238 Zr
   0.1656059080758756    0.1639646519736124    0.5030377857411757 Zr
   0.4955666691975893    0.1645957131572726    0.4928813770257383 Zr
   0.4950236959816048    0.5003302839852601    0.4998810587437463 Zr
   0.8339693337864706    0.5000201643583291    0.5056993538581992 Zr
   0.1653465984050782    0.8374000434707274    0.5009966360572871 Zr
   0.8338482984209797    0.8293273946039483    0.5027755818873570 Zr
   0.1654850431699814    0.1698760248154442    0.8397543566606498 Zr
   0.5043401213608339    0.1648353489617312    0.8328998697247204 Zr
   0.1692090211452028    0.4974044357105817    0.8300820594007037 Zr
   0.8320816606861012    0.5032016887125345    0.8260849035811546 Zr
   0.4987569068267433    0.8359416978083184    0.8321501146945665 Zr
   0.8291010785135703    0.8305439303990323    0.8297257799332458 Zr
   0.1685567930791237    0.2439533752501566   -0.0035141903881262 O
   0.5311250703135825    0.1688068260646771   -0.0039997756005178 O
   0.7833801167657398    0.1651692894291812    0.0107211190037983 O
   0.1458533417298147    0.5000988042185166   -0.0029456158767938 O
   0.5154996734163501    0.4956818814030260    0.0039944366674534 O
   0.8377594017023546    0.5188377033417987   -0.0108816544712132 O
   0.1742827599367368    0.8094070600100035    0.0075866119329683 O
   0.5006027969735873    0.8312050651715895   -0.0004068258539081 O
   0.8281300972810512    0.8060438160027692   -0.0086201952171517 O
   0.1793877973935340   -0.0082126360239987    0.1780201700152242 O
   0.5125233651313709   -0.0130018814933842    0.1750233281997150 O
   0.8189229479289862   -0.0023046598800767    0.1669179261727398 O
  -0.0090562439856906    0.1660208873398843    0.1248335556173585 O
   0.3364190969798911    0.1583277869382639    0.1340773480185201 O
   0.6735948714419627    0.1601829484736736    0.2354916650643859 O
   0.1887859456694258    0.3323462355830487    0.1514334610274226 O
   0.5180276822726680    0.3412366547161369    0.1722920510655784 O
   0.8062619378706217    0.3301466262488787    0.1675443400170313 O
   0.0063174810668087    0.4508243180188201    0.1675763853194806 O
   0.3332415097325864    0.4949299560124131    0.1653385159128565 O
   0.6670371865773788    0.5366986838814360    0.1692682304115625 O
   0.1609333867554972    0.6594654681696196    0.1718853250955670 O
   0.4740820360686702    0.6629383206888607    0.1492146338775967 O
   0.9069216676113051    0.6608832397686472    0.1657671452880921 O
   0.0079800946091984    0.8617271464407892    0.1569678799834572 O
   0.3332768578640530    0.8323155711436473    0.1733265696924089 O
   0.6639020767094183    0.8015958905266648    0.1679338631847097 O
   0.1663469579436625    0.1860963433621274    0.3372768396906597 O
   0.4555742343423529    0.1741077099741749    0.3349347932211381 O
   0.8857492656614341    0.1649989423487267    0.3219017406074579 O
   0.1550367585231753    0.4893524390090369    0.3284827156516138 O
   0.5095821420688843    0.5145535020724554    0.3323434816529899 O
   0.8376382344773765    0.5221576279915662    0.3439045437049786 O
   0.1581388018597905    0.8182629957471703    0.3343224172388948 O
   0.4995738832850289    0.8016246270261115    0.3282746651950387 O
   0.8402149141361511    0.8038010807417761    0.3410655356845776 O
   0.1568344795303387    0.0008851496624922    0.4737122197736131 O
   0.5078313850949984    0.0039596477151951    0.4742696376686573 O
   0.8319843699964176   -0.0095870035145945    0.4752993761592796 O
   0.0063429214525281    0.1701240931325662    0.5163822162330313 O
   0.3288261749689033    0.1548044752551205    0.5122257552196812 O
   0.6579286679426427    0.1717780044885996    0.4930298705117353 O
   0.1718069441506906    0.3242701357285740    0.5280869365383174 O
   0.4954764729605605    0.3324779755306147    0.4942323876080952 O
   0.8309005360303441    0.3388129939888327    0.4805417045165052 O
  -0.0031021907834485    0.4999971768112427    0.5239035826713764 O
   0.3371447231532197    0.5002371952564426    0.4671893505923702 O
   0.6635435622029129    0.5039974177720746    0.5045266584353654 O
   0.1686495102494013    0.6736697564217551    0.5120291102303320 O
   0.4924327449077878    0.6611008560306368    0.5244105180730734 O
   0.8359426030376210    0.6648606656150688    0.5346036297768911 O
  -0.0005368850845088    0.8310948642788588    0.5101895710046156 O
   0.3262615901520988    0.8447895772790096    0.4965188120754728 O
   0.6719805863704575    0.8219036151251943    0.4990718921462291 O
   0.1674204082043071    0.1303624681073744    0.6766794121355291 O
   0.4893793747242396    0.1553625949255030    0.6627463294573949 O
   0.8392342262731847    0.1541338338976103    0.6640571572277404 O
   0.2139107586493855    0.5085138017594897    0.6740837696799592 O
   0.4772993935667627    0.4856522314559623    0.6598715888356449 O
   0.8191389351681246    0.4692145839628305    0.6663448265051174 O
   0.1677944702571160    0.8610853984448472    0.6646026277337771 O
   0.5011198060599514    0.8557042876976161    0.6709463864499827 O
   0.8262517001658998    0.8612101985241447    0.6664987952596844 O
   0.1655759188057012    0.0187074814503827    0.9014888522174823 O
   0.5206210966716983    0.0006534714517525    0.8438898973498983 O
   0.8118775961461774   -0.0091390294049494    0.8543718198127092 O
   0.0024041976596810    0.1660535969742122    0.8463887601102272 O
   0.3346496543510337    0.1646817974521136    0.8434795770027854 O
   0.6603602227156529    0.1733941375182262    0.7957985429861957 O
   0.1612492301469368    0.3314137367693057    0.7983978088377178 O
   0.5041923148892351    0.3273037660353453    0.8292302211342413 O
   0.8257000330821838    0.3402148504070072    0.8469543920373640 O
   0.0021545403868545    0.4986753934245461    0.8105554136941416 O
   0.3257740045759432    0.4853917949278208    0.8692392705162997 O
   0.6688578674204576    0.5231884493131670    0.8253602683304775 O
   0.1699303077703275    0.6655608677351292    0.8250408501344264 O
   0.4712943274792261    0.6751139798929897    0.8248526671842886 O
   0.8464640586038864    0.6673815740971438    0.7991524147768174 O
  -0.0070895125587583    0.8462357766451745    0.8304703339002225 O
   0.3378431669074550    0.8629730942327377    0.8329750751716375 O
   0.6632897651869502    0.8080084776288462    0.8292194469039430 O
   0.1626242284715499    0.1595726954098854    0.1631480840818318 Y
   0.5102060407656849    0.1643267019714408    0.1712940076290736 Y
   0.8396137452313498    0.5032389855492716    0.1673998010487818 Y
   0.8392387135851815    0.8195776547865306    0.1664531385046254 Y
   0.8329578417556611    0.1643291586248535    0.4890534249873201 Y
   0.1701569939451884    0.4971987915501734    0.5066153490906777 Y
   0.4987138562499248    0.8323288298001936    0.4989341397281034 Y
   0.8255447717297842    0.1643458099559196    0.8381945773634131 Y
   0.4945956631522879    0.5021012921473479    0.8301501469747643 Y
   0.1665835632235171    0.8481626049231961    0.8395859689896374 Y
   0.1732974314641502    0.3018356285051715    0.0606628123692458 H
