Ba1 Zr1 H1 O3
1.0
   4.2123871499999996    0.0000000000000000   -0.0000000000000000
   0.0000000000000000    4.2123871499999996   -0.0000000000000000
  -0.0000000000000000    0.0000000000000000    4.2123871499999996
Ba Zr O H
1 1 3 1
direct
  -0.0311690763386445   -0.0024972055657888   -0.0311689882790968 Ba
   0.5202084175502276    0.4509268843704232    0.5202086247448714 Zr
   0.5293337399506737   -0.0430745445347975    0.5293363614630802 O
   0.5025197506406645    0.5043404536856715    0.0212560671476927 O
   0.0212554456550616    0.5043392911183052    0.5025201938665101 O
   0.3628739124445148    0.8960094589595841    0.3628699239013600 H
