Ba27 Zr27 H1 O81
1.0
  12.5760000000000005    0.0000000000000000    0.0000000000000000
   0.0000000000000000   12.5760000000000005    0.0000000000000000
   0.0000000000000000    0.0000000000000000   12.5760000000000005
Ba Zr O Ba Zr O Ba Zr O Ba Zr O Ba Zr O Ba Zr O Ba Zr O Ba Zr O Ba Zr O Ba Zr O Ba Zr O Ba Zr O Ba Zr O Ba Zr O Ba Zr O Ba Zr O Ba Zr O Ba Zr O Ba Zr O Ba Zr O Ba Zr O Ba Zr O Ba Zr O Ba Zr O Ba Zr O Ba Zr O Ba Zr O H
1 1 3 1 1 3 1 1 3 1 1 3 1 1 3 1 1 3 1 1 3 1 1 3 1 1 3 1 1 3 1 1 3 1 1 3 1 1 3 1 1 3 1 1 3 1 1 3 1 1 3 1 1 3 1 1 3 1 1 3 1 1 3 1 1 3 1 1 3 1 1 3 1 1 3 1 1 3 1 1 3 1
direct
  -0.0019382272921508   -0.0017510420431922    0.0009847610035583 Ba
   0.1616089373393309    0.1666668458909481    0.1776144985234694 Zr
   0.1673535726699464    0.1666673161424284    0.0024655296693742 O
   0.1645703527220476    0.0013620885458590    0.1662216970751361 O
  -0.0018767697313866    0.1666666976119137    0.1651465037094721 O
  -0.0029420818252894   -0.0019764267094468    0.3353150842315903 Ba
   0.1660959776059150    0.1666666380213667    0.5027425115329255 Zr
   0.1731101166698082    0.1666667568398434    0.3379747763525575 O
   0.1657247511293345   -0.0000305467402044    0.5010649445754815 O
  -0.0006675412751655    0.1666665960972725    0.4997266332005993 O
  -0.0016683214778104   -0.0011967661936833    0.6671976097543890 Ba
   0.1663697728096292    0.1666666799653089    0.8295563898832132 Zr
   0.1666096962637628    0.1666671557999159    0.6675720213024471 O
   0.1667568616156226    0.0010033003222968    0.8389595369693709 O
   0.0008462587946982    0.1666666135720323    0.8392585960596834 O
  -0.0019381058505276    0.3350841140125435    0.0009846291856487 Ba
   0.1659923358218999    0.4999559663962397    0.1676137410212420 Zr
   0.1674435605227763    0.5022395150000648    0.0008730230054810 O
   0.1645705661992037    0.3319714696746349    0.1662215279891538 O
  -0.0003801685380218    0.4998555738303512    0.1671454383471425 O
  -0.0029421421085692    0.3353096348742970    0.3353150162988559 Ba
   0.1663182724951385    0.4999313124911436    0.5008957381035301 Zr
   0.1664407874220947    0.4984282679715428    0.3340452483367174 O
   0.1657248629430010    0.3333638982890107    0.5010645489700498 O
  -0.0003498776042319    0.4999510950103120    0.5005233721305612 O
  -0.0016684138494879    0.3345296854318653    0.6671976010194116 Ba
   0.1664343548672221    0.5001230448843533    0.8339923495288971 Zr
   0.1666471533815788    0.4982113523371737    0.6676809728230129 O
   0.1667567450302153    0.3323299600111663    0.8389600609905843 O
   0.0002359100599967    0.4992671663543328    0.8339383190880774 O
  -0.0003523611682211    0.6666664761630441    0.0006052107764726 Ba
   0.1659922542771197    0.8333773541041676    0.1676137100091956 Zr
   0.1674441720782283    0.8310942411325585    0.0008729249870609 O
   0.1663058579944262    0.6666668057136190    0.1692708629593776 O
  -0.0003803124289139    0.8334779272388806    0.1671453645366515 O
  -0.0004404623799378    0.6666668283462813    0.3339909218921568 Ba
   0.1663182619011924    0.8334020237799510    0.5008958290756852 Zr
   0.1664405297103672    0.8349050801585148    0.3340452710933068 O
   0.1665248161227374    0.6666666473064319    0.5007073091383819 O
  -0.0003501175718938    0.8333825153113290    0.5005235985953069 O
  -0.0002618272267038    0.6666665350687436    0.6668791458919627 Ba
   0.1664345364632672    0.8332100669642530    0.8339922418128760 Zr
   0.1666470680402296    0.8351218643722289    0.6676809031542019 O
   0.1661679924044684    0.6666668423613740    0.8326724813676450 O
   0.0002356811303649    0.8340664494700828    0.8339385772441343 O
   0.3404483370078377   -0.0136921942618484   -0.0024518009920075 Ba
   0.4957634709419247    0.1666665798208126    0.1641926589894002 Zr
   0.5101929799918610    0.1666665273762970   -0.0007331246824479 O
   0.4963156956192624    0.0002107716672587    0.1671523862978281 O
   0.3263071538522965    0.1666666193978470    0.1378625829352343 O
   0.3332125869970760   -0.0024879228544093    0.3343687249545834 Ba
   0.4981844095081183    0.1666667544579780    0.4992444336690182 Zr
   0.4879672628475345    0.1666665624402479    0.3310224343090224 O
   0.4996948231144329    0.0001904485303042    0.4993461915055782 O
   0.3325157114049921    0.1666666013813569    0.5033535652119214 O
   0.3341884713481355   -0.0009153763536347    0.6667231658848554 Ba
   0.4997697963921963    0.1666667972505108    0.8336281546658602 Zr
   0.4971935610666737    0.1666664513336847    0.6668718818165764 O
   0.4990885929262837   -0.0004678972824292    0.8331997912169438 O
   0.3320891950028623    0.1666664709449085    0.8416339442609057 O
   0.3404487251136303    0.3470253467133384   -0.0024516408080386 Ba
   0.5002111717173494    0.5004209221332735    0.1674981469666330 Zr
   0.5012310948916485    0.5015303818186904    0.0000745736670788 O
   0.4963152488016768    0.3331224107008127    0.1671523670428293 O
   0.3329545057744122    0.5004679639835795    0.1669552405149962 O
   0.3332130362435196    0.3358212770245230    0.3343688155791307 Ba
   0.4999616009821399    0.5000293471136807    0.5000629272950818 Zr
   0.4995028205903213    0.4997044711097072    0.3335237935613281 O
   0.4996946258273300    0.3331428630664603    0.4993462538543999 O
   0.3331156798221024    0.4995773429436114    0.5003959919452385 O
   0.3341884805761843    0.3342485111442282    0.6667233001056829 Ba
   0.5011478821780398    0.5007312255770175    0.8324162768583943 Zr
   0.4999427545539913    0.4995644924651890    0.6664257032724127 O
   0.4990883930468184    0.3338012512972985    0.8331998445572358 O
   0.3336446237855148    0.5010248650922513    0.8331670009636754 O
   0.3332857146996918    0.6666666012745255    0.0005769142787513 Ba
   0.5002111707519030    0.8329125706823437    0.1674981338143803 Zr
   0.5012309587907170    0.8318030509652693    0.0000745861550296 O
   0.4998806494804239    0.6666667342932026    0.1677055415566357 O
   0.3329545791540435    0.8328655178286607    0.1669556226118881 O
   0.3330463542443193    0.6666666222561914    0.3340975636553917 Ba
   0.4999616808456938    0.8333040306958011    0.5000629705081150 Zr
   0.4995029119957775    0.8336289783488766    0.3335238113059228 O
   0.4997657519445465    0.6666666404890087    0.4999288818849602 O
   0.3331157752423319    0.8337561367791487    0.5003958614832118 O
   0.3332296057464730    0.6666666556350187    0.6665010604696687 Ba
   0.5011479664111773    0.8326018718777344    0.8324163538658518 Zr
   0.4999428347177612    0.8337692271751697    0.6664258221572570 O
   0.5006458960986512    0.6666665714204451    0.8323560348989096 O
   0.3336447048018885    0.8323085431679947    0.8331667835378642 O
   0.6667858493178843    0.0003088070222679    0.0002233853964086 Ba
   0.8296821497008836    0.1666666443692444    0.1677613951667389 Zr
   0.8302234086682504    0.1666667149087879    0.0011858739193393 O
   0.8322762571297297    0.0003948938062374    0.1672884789767316 O
   0.6627628908839083    0.1666667501673038    0.1721070790019969 O
   0.6651276320840479    0.0001714990751977    0.3335065168189992 Ba
   0.8322724605775937    0.1666665865105764    0.5006265015335267 Zr
   0.8330378975405850    0.1666665137142533    0.3339538610987388 O
   0.8329470945361258    0.0001217280727591    0.5005977785217043 O
   0.6649904477655967    0.1666665536819568    0.4984082250427573 O
   0.6662968191306732    0.0003240018251660    0.6666061817095309 Ba
   0.8329020207362972    0.1666666332688308    0.8341653315948621 Zr
   0.8343001554039324    0.1666666733917004    0.6673242561497409 O
   0.8337413418639161    0.0002515180092206    0.8338262531320974 O
   0.6665561326274843    0.1666666241880072    0.8301077630020681 O
   0.6667860512330157    0.3330243272108330    0.0002232531086870 Ba
   0.8328600870174482    0.4999786194979339    0.1670506334852337 Zr
   0.8334975085482738    0.4995911030325904    0.0003832430034715 O
   0.8322763696881785    0.3329383875168128    0.1672884277520042 O
   0.6662959423008438    0.4992798746429996    0.1672617610246086 O
   0.6651276986184372    0.3331619109659598    0.3335064822155268 Ba
   0.8328816749011123    0.5000631812749312    0.5003718818812778 Zr
   0.8332355294548819    0.4997509296925379    0.3336041799126070 O
   0.8329470828783700    0.3332115481672742    0.5005976590265885 O
   0.6664525793552166    0.4998070182331406    0.5000662205784431 O
   0.6662971310322857    0.3330092499812516    0.6666061200246798 Ba
   0.8335595511356273    0.4999520347484776    0.8335359132991246 Zr
   0.8336457650217990    0.4997504434243100    0.6669642700291986 O
   0.8337412589824714    0.3330817851291844    0.8338262150294548 O
   0.6671288073050230    0.4996912285584972    0.8329581956603705 O
   0.6673451599689806    0.6666665089682491    0.0002294884099210 Ba
   0.8328600493638391    0.8333546595927610    0.1670506901215396 Zr
   0.8334970795608745    0.8337422274199090    0.0003833253271061 O
   0.8326107917193583    0.6666665992851699    0.1669642843848647 O
   0.6662959506525209    0.8340533357982869    0.1672618252917563 O
   0.6668283788024763    0.6666665847091828    0.3339965589339711 Ba
   0.8328817789799275    0.8332701274780001    0.5003719063307730 Zr
   0.8332355008180216    0.8335824265450811    0.3336041793598191 O
   0.8331615823276552    0.6666666516739732    0.5002671718339570 O
   0.6664526752939881    0.8335263326151043    0.5000663013454181 O
   0.6673558737095260    0.6666666554371076    0.6660647521552542 Ba
   0.8335593471286750    0.8333813044656053    0.8335359331857995 Zr
   0.8336456658981244    0.8335827941791382    0.6669642838462601 O
   0.8340246660042576    0.6666665815793896    0.8334442472686130 O
   0.6671287296107811    0.8336421392010180    0.8329580458458287 O
   0.2446657495500476    0.1666667075295884    0.0237843966653039 H
