Ba27 Y3 Zr24 H1 O81
1.0
  12.5760000000000005    0.0000000000000000    0.0000000000000000
   0.0000000000000000   12.5760000000000005    0.0000000000000000
   0.0000000000000000    0.0000000000000000   12.5760000000000005
Ba Zr O Ba Zr O Ba Zr O Ba Zr O Ba Zr O Ba Y O Ba Zr O Ba Zr O Ba Zr O Ba Zr O Ba Zr O Ba Y O Ba Zr O Ba Zr O Ba Zr O Ba Zr O Ba Zr O Ba Zr O Ba Zr O Ba Zr O Ba Zr O Ba Zr O Ba Zr O Ba Zr O Ba Zr O Ba Y O Ba Zr O H
1 1 3 1 1 3 1 1 3 1 1 3 1 1 3 1 1 3 1 1 3 1 1 3 1 1 3 1 1 3 1 1 3 1 1 3 1 1 3 1 1 3 1 1 3 1 1 3 1 1 3 1 1 3 1 1 3 1 1 3 1 1 3 1 1 3 1 1 3 1 1 3 1 1 3 1 1 3 1 1 3 1
direct
   0.9928730316795568    0.9855392941911135    1.0034406471318855 Ba
   0.1662667321319719    0.1666093835109129    0.1703452792671339 Zr
   0.1624232475191519    0.1636884110804536    0.0001806057605984 O
   0.1641093641335548    0.0011857939300599    0.1616122359676818 O
   0.9994309895452453    0.1671468886046776    0.1588504809014499 O
   0.9983788269056708   -0.0004373597965615    0.3334041278982730 Ba
   0.1672930864093887    0.1667320702418943    0.4967423400769975 Zr
   0.1738039197054428    0.1653456715691201    0.3313456178941155 O
   0.1710910783046611    1.0011501759468397    0.4983230159071510 O
   0.0028480287524343    0.1687461615908458    0.4825558027435051 O
   0.9999067880934165   -0.0055805909369795    0.6644851780875917 Ba
   0.1686455853448289    0.1649681115431566    0.8226833679699763 Zr
   0.1496700922540658    0.1648010369436086    0.6611427926894299 O
   0.1614067738142145    1.0001497291650348    0.8325524418848725 O
   1.0045535187555208    0.1665010597692726    0.8754522512088334 O
  -0.0072945100312128    0.3483436550654566    0.0027536012211516 Ba
   0.1667999776145631    0.5005234407986234    0.1667755250048985 Zr
   0.1648991191508025    0.5065975150588683    1.0067635751425474 O
   0.1644719731005841    0.3316634279943316    0.1618950983218906 O
   0.9985902377026907    0.5022595177338137    0.1694337063632501 O
   0.9987321233749132    0.3332770876643757    0.3324059671931457 Ba
   0.1676829860368364    0.4994330400053715    0.4973940858104796 Zr
   0.1676693168052484    0.4952705751526670    0.3314985007917486 O
   0.1698002661172330    0.3324174703216207    0.4964926856327946 O
   1.0006110052360684    0.4970623425277964    0.4952607023797234 O
   0.0023462498293318    0.3390481785366806    0.6656634640367528 Ba
   0.1673701899221243    0.4998088660253623    0.8322953253662349 Y
   0.1664589570834406    0.4989115844367945    0.6579589160781230 O
   0.1667490345650391    0.3250006039174465    0.8319437539735020 O
   0.9933360009724816    0.5040585356399414    0.8353928179420311 O
   1.0007786875267113    0.6659824223322850    0.9984013940536082 Ba
   0.1671272435934033    0.8332893763201398    0.1661182227273854 Zr
   0.1671348830777852    0.8306830780729415    1.0005013195320953 O
   0.1684412305889523    0.6675958935685369    0.1738143620915253 O
   1.0003833054119817    0.8300354780932886    0.1650920510024123 O
  -0.0003960299275384    0.6674596153123721    0.3338428573544905 Ba
   0.1686201209851350    0.8340993126909203    0.4983727865426248 Zr
   0.1691890485416165    0.8391896938865420    0.3309613381138312 O
   0.1686274678250831    0.6666615577686908    0.4941202008414866 O
   0.0079236351919426    0.8345093155563048    0.4985239339555989 O
   0.0010198103104485    0.6666179831915074    0.6665157401586701 Ba
   0.1672988761714683    0.8337686100952522    0.8322386840538769 Zr
   0.1699568473656584    0.8371194820147437    0.6650771381397771 O
   0.1688617577606312    0.6737060404652949    0.8273618523085330 O
   0.0003393850463256    0.8295586545996769    0.8364874809964984 O
   0.3362450318818411   -0.0020803318380209   -0.0021913381192221 Ba
   0.5006878140893559    0.1666555302044258    0.1671107645819100 Zr
   0.5180262203742384    0.1665511244680915    1.0068998066719943 O
   0.4983194572746526   -0.0004378644538218    0.1676136718627985 O
   0.3318198714318309    0.1668480150209824    0.1565467419801954 O
   0.3346327633603507    0.9993294631043503    0.3325557358187179 Ba
   0.4998690745063281    0.1670015575130556    0.4993758889942971 Zr
   0.4913865177115120    0.1667777112028511    0.3331385886935470 O
   0.4999540552622496    1.0001872943391341    0.4961138674502862 O
   0.3321762115035262    0.1679016087124659    0.5005980441890272 O
   0.3373185079068827   -0.0007922279463138    0.6654301528434929 Ba
   0.5051071631899088    0.1663107706611640    0.8324439138427179 Y
   0.4900028839768010    0.1674411006296357    0.6591004330486636 O
   0.5025797171366756    0.9932667739496586    0.8342638154241733 O
   0.3282420400002131    0.1611833753978615    0.8409080642392613 O
   0.3361005065205779    0.3353816624589541   -0.0033006262650434 Ba
   0.4999366515827455    0.5002925193938292    0.1664095301662421 Zr
   0.5035819526410387    0.5026139032202210    0.0014246405889446 O
   0.4984636215489640    0.3338392127088283    0.1674998656382266 O
   0.3338066926348766    0.4986401202237046    0.1662771100877637 O
   0.3349227019721804    0.3341413722833544    0.3326962393267232 Ba
   0.5008026668485410    0.5002447862400086    0.4986303030357988 Zr
   0.5004288348666505    0.5012781909363394    0.3320818669878328 O
   0.5010828749448625    0.3341488577565128    0.4955518824040211 O
   0.3348994997857672    0.4996258035192638    0.4965882317806920 O
   0.3369183224175216    0.3352885890558303    0.6652394973488989 Ba
   0.5018183059284123    0.5009913869366723    0.8325639992993675 Zr
   0.5013453702870001    0.5009054891476431    0.6641332714074439 O
   0.5023551683754467    0.3392491750143767    0.8349952372667004 O
   0.3406275206522305    0.5027409554073951    0.8347757338436124 O
   0.3332450490677824    0.6662852986696420    0.9981166045174620 Ba
   0.4995005861813714    0.8331762783182118    0.1660557200938937 Zr
   0.4995908409640618    0.8306518320233456    1.0007040831351159 O
   0.4994138463123158    0.6667161584123774    0.1673296047723423 O
   0.3330316557178320    0.8347790128989099    0.1640713433120066 O
   0.3342311356934725    0.6667011368554624    0.3324728505600448 Ba
   0.4997850462602432    0.8329596116660617    0.4988381972634104 Zr
   0.4973546415735189    0.8322283579545703    0.3313431013491570 O
   0.4992006883702997    0.6658624654178935    0.4977423797553776 O
   0.3342117584196725    0.8324999991752631    0.4981804183578454 O
   0.3329344822731220    0.6659045367824528    0.6665311097812116 Ba
   0.5008603243788652    0.8327442457815626    0.8328255123939349 Zr
   0.4976231823081529    0.8316612053735921    0.6656949452537959 O
   0.5045165315960378    0.6675881107077730    0.8323653700950884 O
   0.3337772193937294    0.8355828860682497    0.8353144986810692 O
   0.6652410565185926   -0.0011416859332573    0.9995883693079340 Ba
   0.8311660370882658    0.1668319951154108    0.1666585717197784 Zr
   0.8093415089138870    0.1675620317423991    1.0019107018556574 O
   0.8342460230073918    0.0005778853716470    0.1635511597098637 O
   0.6662793957593165    0.1663042433741937    0.1847899479990383 O
   0.6677454063004827    0.0001803955904403    0.3353424038129246 Ba
   0.8374851753619051    0.1678122864052350    0.5021850097147245 Zr
   0.8353944096192889    0.1679806387770763    0.3329634519009441 O
   0.8332001088834112    1.0079500084948083    0.5042614629848081 O
   0.6685712429361539    0.1690392169026969    0.5042518292469698 O
   0.6683374903953764    0.9987387503992371    0.6657385709645748 Ba
   0.8384195812591823    0.1667655233445063    0.8358616150679746 Zr
   0.8662266592479803    0.1693212147092970    0.6696054991314370 O
   0.8404152546427484    0.0004305034861833    0.8384700167948125 O
   0.6795200401423560    0.1648863499404030    0.8063843787276064 O
   0.6652521125860962    0.3349065284733845    0.0000695464119314 Ba
   0.8316474114026770    0.5005827937882016    0.1679945392031883 Zr
   0.8294814213734609    0.5014613370371973    0.0019289023232629 O
   0.8339649196767137    0.3335301503148219    0.1653152861677138 O
   0.6660557778678335    0.4990180840342508    0.1687996508235284 O
   0.6670321248709052    0.3326729881164766    0.3347611351117890 Ba
   0.8337658914150615    0.4990457784863009    0.4997341606191240 Zr
   0.8320448750692335    0.4953775361840919    0.3326563479396619 O
   0.8333316593848861    0.3328095611356253    0.5027201730972711 O
   0.6666775715600477    0.4985102539177100    0.4983381998959246 O
   0.6677188099113824    0.3332312275241462    0.6666005085837561 Ba
   0.8325712692567294    0.5004860151075181    0.8332593482916938 Zr
   0.8336447174518574    0.4979568558636004    0.6664534864814223 O
   0.8373611743052140    0.3329762385794597    0.8373661681923789 O
   0.6680660436486312    0.4995008417904292    0.8316482136667308 O
   0.6664926466523328    0.6668011749606004   -0.0003626474031012 Ba
   0.8320613668758153    0.8326875159974224    0.1668929020175483 Zr
   0.8321751406199051    0.8303584620232677    1.0011513619273886 O
   0.8310846611109216    0.6659328768429575    0.1676858822317664 O
   0.6653233308977133    0.8344284560469527    0.1654556595775269 O
   0.6664592272580973    0.6672015294767878    0.3342026134044591 Ba
   0.8339470214642826    0.8334108201267552    0.5001228891380730 Y
   0.8338719618186882    0.8370870728237391    0.3263958606108430 O
   0.8343243713222340    0.6594793243739565    0.4980679057458026 O
   0.6601484011506267    0.8326994597538439    0.4982524678500910 O
   0.6678946776272071    0.6674178615473473    0.6653941677461875 Ba
   0.8332165653448950    0.8327625680898002    0.8341853670449650 Zr
   0.8343707341700235    0.8336147075207607    0.6739260366745411 O
   0.8293693146456466    0.6665337334614267    0.8350794211234446 O
   0.6673773456204788    0.8349344894925440    0.8353264971074348 O
   0.0855067820756862    0.1666674912359062    0.9776887072919334 H
