Ba27 Zr27 H1 O81
1.0
  12.5760000000000005    0.0000000000000000    0.0000000000000000
   0.0000000000000000   12.5760000000000005    0.0000000000000000
   0.0000000000000000    0.0000000000000000   12.5760000000000005
Ba Zr O Ba Zr O Ba Zr O Ba Zr O Ba Zr O Ba Zr O Ba Zr O Ba Zr O Ba Zr O Ba Zr O Ba Zr O Ba Zr O Ba Zr O Ba Zr O Ba Zr O Ba Zr O Ba Zr O Ba Zr O Ba Zr O Ba Zr O Ba Zr O Ba Zr O Ba Zr O Ba Zr O Ba Zr O Ba Zr O Ba Zr O H
1 1 3 1 1 3 1 1 3 1 1 3 1 1 3 1 1 3 1 1 3 1 1 3 1 1 3 1 1 3 1 1 3 1 1 3 1 1 3 1 1 3 1 1 3 1 1 3 1 1 3 1 1 3 1 1 3 1 1 3 1 1 3 1 1 3 1 1 3 1 1 3 1 1 3 1 1 3 1 1 3 1
direct
  -0.0006832764466149   -0.0005335673590706    0.0013412046404349 Ba
   0.1584019832873676    0.1666667211201099    0.1792983846288311 Zr
   0.1503036300941561    0.1666665143712474    0.0041518817111133 O
   0.1662399520475764    0.0009253546307488    0.1695942229907487 O
  -0.0052514375840774    0.1666658978724450    0.1713853501800781 O
  -0.0025316661928843   -0.0014133477797692    0.3363785924836549 Ba
   0.1665378069586607    0.1666664484882888    0.5048247265126219 Zr
   0.1700476477313575    0.1666675420911182    0.3405169189633062 O
   0.1664849620398412   -0.0005900236786338    0.5015336156697779 O
  -0.0009100178732438    0.1666665927620401    0.5010983131825897 O
  -0.0007501607719778   -0.0005743369421112    0.6672774967418494 Ba
   0.1666457789642437    0.1666667389417126    0.8321677091333106 Zr
   0.1670771694913364    0.1666667178208801    0.6690243277097433 O
   0.1665014573392624    0.0004481711111224    0.8348828443704582 O
   0.0000936848771439    0.1666664626591963    0.8322431798528619 O
  -0.0006829191132536    0.3338666970128318    0.0013404098615840 Ba
   0.1670798966729141    0.5002360965244738    0.1669334855995680 Zr
   0.1666189759767282    0.5010506154834448    0.0002821849534710 O
   0.1662402314938511    0.3324075864045051    0.1695944553847724 O
   0.0006286220723031    0.4991748286434275    0.1673626022174906 O
  -0.0025302470001316    0.3347472088167868    0.3363783750545957 Ba
   0.1664770996461080    0.5005869178906168    0.5003728754422879 Zr
   0.1662430586058660    0.4988357056068110    0.3332985565902183 O
   0.1664851469685347    0.3339233529214280    0.5015329468898931 O
  -0.0003883004698456    0.5002794235402044    0.5004334416155612 O
  -0.0007498159617244    0.3339080324252442    0.6672777619628460 Ba
   0.1671591398030552    0.5005698484529068    0.8334271426601088 Zr
   0.1666063593298631    0.4993631610687324    0.6671681047910978 O
   0.1665020488829854    0.3328849934434994    0.8348807828431322 O
   0.0007455064986041    0.4998480641200995    0.8333658562516033 O
   0.0001401781231517    0.6666666148926321    0.0001477319156648 Ba
   0.1670799915308228    0.8330981989669444    0.1669333793893018 Zr
   0.1666194947469057    0.8322791384776473    0.0002820234116791 O
   0.1663680513518598    0.6666667275296626    0.1670979607009467 O
   0.0006280804442944    0.8341598829514791    0.1673623165646051 O
  -0.0001736031563923    0.6666665898489559    0.3339114692134835 Ba
   0.1664765453370157    0.8327471993267027    0.5003727367510126 Zr
   0.1662420916549452    0.8344925549283011    0.3332983789897747 O
   0.1668678314243428    0.6666667826435325    0.4998244557809904 O
  -0.0003883273544433    0.8330549718651441    0.5004337089022203 O
  -0.0000359386334768    0.6666663673461775    0.6665058418556873 Ba
   0.1671593054225651    0.8327643084212374    0.8334269650566006 Zr
   0.1666073080357792    0.8339664655696032    0.6671679049548920 O
   0.1665336202007146    0.6666673163173136    0.8331549670468781 O
   0.0007458143281606    0.8334867358482828    0.8333665961504321 O
   0.3408634231963801   -0.0118868167714558   -0.0017465379196515 Ba
   0.4964873665315405    0.1666669785771725    0.1660535497287513 Zr
   0.4999732808148292    0.1666662275687954    0.0003638921117231 O
   0.4986149636357667    0.0002181094255414    0.1667677778547792 O
   0.3249303332136801    0.1666662161709659    0.1497222856420263 O
   0.3330285203231573   -0.0006351126495040    0.3338506786044372 Ba
   0.4997845862609575    0.1666664248154371    0.4997509770959682 Zr
   0.4966672913015306    0.1666662495028794    0.3321960733447178 O
   0.4997089311079382    0.0000064960511361    0.5001525165683531 O
   0.3336250583557515    0.1666662731616463    0.5024823587818742 O
   0.3341193389877727   -0.0007512058243540    0.6674096051577189 Ba
   0.5003401708944503    0.1666661598047612    0.8337639257347458 Zr
   0.4990442489285585    0.1666667956107669    0.6670990639140287 O
   0.5007423890351385   -0.0005281526455458    0.8326576657083580 O
   0.3329565882842774    0.1666659492651145    0.8342403651404987 O
   0.3408628499594945    0.3452201526653945   -0.0017472791996490 Ba
   0.5009430810592641    0.5004723972493360    0.1673395527863840 Zr
   0.5020349974195858    0.5023484258210290   -0.0001811206503991 O
   0.4986146612607009    0.3331151065297671    0.1667672175850284 O
   0.3338603394724992    0.5005143684857113    0.1673174109918408 O
   0.3330287896774468    0.3339686276663307    0.3338511386306248 Ba
   0.4997228626107720    0.5000758080924969    0.4999615157140762 Zr
   0.5003576186649595    0.5004281167528822    0.3333947548416072 O
   0.4997104571429942    0.3333266659487665    0.5001530920975346 O
   0.3330795283780652    0.4998806119457276    0.4999747929370925 O
   0.3341193634974192    0.3340848796738255    0.6674090821577655 Ba
   0.5017274927298633    0.5008529778099045    0.8322783623931738 Zr
   0.5005577341030083    0.5004645924713049    0.6663326976863132 O
   0.5007435276998095    0.3338612796809697    0.8326584969311431 O
   0.3344127029472413    0.5015886107201127    0.8323649086974445 O
   0.3344078529482051    0.6666674773871369   -0.0001709886754763 Ba
   0.5009434833298493    0.8328607576391223    0.1673400851973674 Zr
   0.5020375871297048    0.8309837664462799   -0.0001808052568353 O
   0.5013504762750578    0.6666666722324306    0.1684656172342854 O
   0.3338603285577881    0.8328194733680885    0.1673175236953909 O
   0.3332562049138582    0.6666670172489667    0.3334900623895266 Ba
   0.4997231626567200    0.8332582220985417    0.4999613982524390 Zr
   0.5003577841114552    0.8329057977664858    0.3333952755515264 O
   0.4998669513972430    0.6666668579536538    0.4998071086973839 O
   0.3330792490493532    0.8334534499149360    0.4999745484257988 O
   0.3332693127015163    0.6666667135410004    0.6666274683612406 Ba
   0.5017276547523774    0.8324808988914726    0.8322777666812604 Zr
   0.5005574576868113    0.8328695794449226    0.6663324008906576 O
   0.5018873586252925    0.6666670102402363    0.8312274540633992 O
   0.3344127595931328    0.8317458137015804    0.8323645703739179 O
   0.6661725432035940   -0.0006786002035738   -0.0001667551792313 Ba
   0.8282653652659658    0.1666669043365198    0.1671269097367151 Zr
   0.8322792138804136    0.1666667037514437    0.0005247882209285 O
   0.8324015615306819    0.0000939559198481    0.1673109984039787 O
   0.6624776266954200    0.1666665736209114    0.1667954979840738 O
   0.6651375097510187    0.0000978024569256    0.3338204017177214 Ba
   0.8320900859784467    0.1666669863162938    0.5009656348365666 Zr
   0.8328017171722477    0.1666667546825515    0.3339049535575261 O
   0.8328172115001780   -0.0000779291921492    0.5002533628337198 O
   0.6659791244918493    0.1666659158296026    0.4997702509856580 O
   0.6664488642254311    0.0002220273980878    0.6666134143336481 Ba
   0.8325575536080254    0.1666667384884660    0.8337358149077646 Zr
   0.8334609100849156    0.1666667718116745    0.6673540066343939 O
   0.8331053299259671    0.0000748785721962    0.8336696811670007 O
   0.6663404054488093    0.1666662362327987    0.8334596548809454 O
   0.6661719196731500    0.3340120480335749   -0.0001669853874088 Ba
   0.8336252249973657    0.5002021656290235    0.1671082257910083 Zr
   0.8332584768401070    0.4997814351920536    0.0004819480945740 O
   0.8324016364322373    0.3332397555054772    0.1673110771013401 O
   0.6670504089878279    0.4997616486224492    0.1670481340214751 O
   0.6651373484034975    0.3332357189990088    0.3338208464814907 Ba
   0.8327916516193242    0.5001942697601317    0.5004851408248688 Zr
   0.8327573133746934    0.5002367414486619    0.3337007344376818 O
   0.8328173793250839    0.3334114509046666    0.5002529844447238 O
   0.6663664247550012    0.5000986130713296    0.5000209244891368 O
   0.6664484885151137    0.3331116064563813    0.6666138018173550 Ba
   0.8341466846593661    0.4999998238918573    0.8337054675918303 Zr
   0.8329908092975279    0.5003966862616188    0.6670133715340939 O
   0.8331050365511283    0.3332587360098518    0.8336700094070771 O
   0.6676729854555583    0.5005104863994854    0.8325859971757500 O
   0.6669806441568064    0.6666669670080780    0.0002448318963080 Ba
   0.8336259677221393    0.8331313435395006    0.1671080242152880 Zr
   0.8332580709592172    0.8335522243446353    0.0004820600045885 O
   0.8336397919333717    0.6666668912867080    0.1666149034206511 O
   0.6670508783658771    0.8335718502444673    0.1670486319931728 O
   0.6672303596107561    0.6666664626761253    0.3338208423505329 Ba
   0.8327920885770984    0.8331390664111972    0.5004853120921537 Zr
   0.8327572587188594    0.8330967573925934    0.3337006191032930 O
   0.8330789583295223    0.6666667653680433    0.5002315627641097 O
   0.6663666099465814    0.8332351760240123    0.5000211340988238 O
   0.6674822673604693    0.6666665509503373    0.6661176621453501 Ba
   0.8341468935160400    0.8333336526490641    0.8337056197107923 Zr
   0.8329910104247262    0.8329367613638193    0.6670133251599852 O
   0.8335772633979280    0.6666666571792829    0.8334394930045967 O
   0.6676731992194540    0.8328234588595091    0.8325852659112888 O
   0.2286681256678594    0.1666661692214091    0.0189952221861883 H
